===============================================
    neon - a non-linear finite element code
===============================================

  Preprocessing mesh and simulation data
    Inserted cube into the mesh store
  Preprocessing complete in 0.00024752s

  Simulating case "Uniaxial"

    Module "SolidMechanics"
    Solution "Equilibrium"
Constructed finite strain J2 plasticity model

    Writing solution to file for step 0
    Non-linear equation system has 24 degrees of freedom

    Performing equilibrium iterations for time 0.1
Elastic left Cauchy-Green
1 0 0
0 1 0
0 0 1
Logarithmic trial strain
          0           0           0
          0           0 7.70372e-34
          0           0       1e-06
Trial stress
     121154           0           0
          0      121154 1.24445e-22
          0           0      282692
Von Mises = 0.161538
      Internal variable update took 0.000138117s
    Newton-Raphson iteration 0
      External forces assembly took 8.9e-08s
      Tangent stiffness assembly took 0.00171784s
      PaStiX LLT direct solver took 0.00205236s
Elastic left Cauchy-Green
          1           0           0
          0           1 1.54075e-33
          0           0           1
Logarithmic trial strain
      -3e-07 -9.49257e-17  2.55368e-17
           0       -3e-07 -4.04645e-17
           0 -4.04645e-17        2e-06
Trial stress
      121154 -1.53342e-05  4.12517e-06
           0       121154 -6.53657e-06
           0 -6.53657e-06       492692
Von Mises = 0.371538
      Internal variable update took 0.00207372s
      Incremental displacement norm 8.48527e-07
      Residual force norm 85668.7
      Equilibrium iteration required 0.00593349s
    Newton-Raphson iteration 1
      External forces assembly took 1.53e-07s
      Tangent stiffness assembly took 3.8775e-05s
      PaStiX LLT direct solver took 0.0039394s
Elastic left Cauchy-Green
    0.999999 -1.89851e-16  5.10736e-17
           0     0.999999 -8.09291e-17
           0 -8.09291e-17            1
Logarithmic trial strain
-8.99999e-07 -1.81896e-16  5.69958e-17
           0 -8.99999e-07 -1.49722e-16
           0 -1.21966e-16        3e-06
Trial stress
   0.0364614 -2.93832e-05  9.20702e-06
           0    0.0364973 -2.41858e-05
           0 -1.97022e-05       630000
Von Mises = 0.63
      Internal variable update took 0.00270948s
      Incremental displacement norm 8.48527e-07
      Residual force norm 85668.7
      Equilibrium iteration required 0.00722674s
    Newton-Raphson iteration 2
      External forces assembly took 1.6e-07s
      Tangent stiffness assembly took 4.3587e-05s
      PaStiX LLT direct solver took 0.0056299s
Elastic left Cauchy-Green
    0.999998 -3.63791e-16  1.13992e-16
           0     0.999998 -2.99444e-16
           0 -2.43933e-16      1.00001
Logarithmic trial strain
    -1.5e-06  -1.2373e-16   1.2373e-16
           0     -1.5e-06 -2.05989e-16
          -0 -9.49665e-17        4e-06
Trial stress
     -121154 -1.99872e-05  1.99872e-05
           0      -121154 -3.32751e-05
           0 -1.53407e-05       767307
Von Mises = 0.888461
      Internal variable update took 0.000159197s
      Incremental displacement norm 2.54495e-13
      Residual force norm 0.0256942
      Equilibrium iteration required 0.00589949s
    Newton-Raphson iteration 3
      External forces assembly took 1.09e-07s
      Tangent stiffness assembly took 4.1981e-05s
      PaStiX LLT direct solver took 0.002961s
Elastic left Cauchy-Green
    0.999997 -2.47459e-16  2.47461e-16
           0     0.999997 -4.11978e-16
           0 -1.89934e-16      1.00001
Logarithmic trial strain
    -1.8e-06  -6.3416e-17  1.60561e-16
           0     -1.8e-06 -2.33177e-16
           0  -1.4991e-16        5e-06
Trial stress
     -121154 -1.02441e-05  2.59368e-05
           0      -121154  -3.7667e-05
           0 -2.42163e-05       977307
Von Mises = 1.09846
      Internal variable update took 0.000614502s
      Incremental displacement norm 8.48527e-07
      Residual force norm 85668.7
      Equilibrium iteration required 0.00366806s
    Newton-Raphson iteration 4
      External forces assembly took 7.8e-08s
      Tangent stiffness assembly took 3.7718e-05s
      PaStiX LLT direct solver took 0.0025775s
Elastic left Cauchy-Green
    0.999996 -1.26831e-16  3.21123e-16
           0     0.999996 -4.66355e-16
           0 -2.99822e-16      1.00001
Logarithmic trial strain
    -1.8e-06 -3.17546e-16  1.76988e-16
-2.06523e-16     -1.8e-06  -2.0143e-16
 1.64267e-17 -1.32041e-16        6e-06
Trial stress
-4.89099e-05 -5.12958e-05  2.85903e-05
-3.33614e-05 -1.43282e-05 -3.25387e-05
 2.65354e-06 -2.13298e-05     1.26e+06
Von Mises = 1.26
      Internal variable update took 0.00116521s
      Incremental displacement norm 8.48528e-07
      Residual force norm 85668.7
      Equilibrium iteration required 0.00382922s
    Newton-Raphson iteration 5
      External forces assembly took 7.8e-08s
      Tangent stiffness assembly took 3.6685e-05s
      PaStiX LLT direct solver took 0.00251062s
Elastic left Cauchy-Green
    0.999996 -6.35089e-16  3.53977e-16
-4.13044e-16     0.999996 -4.02862e-16
 3.28534e-17 -2.64084e-16      1.00001
Logarithmic trial strain
    -1.8e-06 -5.64382e-16  1.45737e-16
-4.81115e-16     -1.8e-06 -1.72902e-16
-1.48246e-17 -1.00044e-16        7e-06
Trial stress
      121154 -9.11694e-05  2.35421e-05
-7.77185e-05       121154 -2.79303e-05
-2.39474e-06 -1.61609e-05  1.54269e+06
Von Mises = 1.42154
      Internal variable update took 0.00119314s
      Incremental displacement norm 7.71532e-16
      Residual force norm 4.17584e-05
      Equilibrium iteration required 0.00379719s
    Convergence detected - step time set to 0.2 for next attempt

    Writing solution to file for step 1

    Performing equilibrium iterations for time 0.2
Elastic left Cauchy-Green
    0.999996 -1.12876e-15  2.91475e-16
-9.62226e-16     0.999996 -3.45806e-16
-2.96493e-17 -2.00089e-16      1.00001
Logarithmic trial strain
    -1.8e-06 -5.50849e-16  1.45737e-16
-4.95338e-16     -1.8e-06 -1.67938e-16
-1.48246e-17 -9.50803e-17        8e-06
Trial stress
      242307 -8.89833e-05  2.35421e-05
-8.00161e-05       242307 -2.71285e-05
-2.39474e-06 -1.53591e-05  1.82538e+06
Von Mises = 1.58308
      Internal variable update took 0.000100794s
    Newton-Raphson iteration 0
      External forces assembly took 8.4e-08s
      Tangent stiffness assembly took 4.2907e-05s
      PaStiX LLT direct solver took 0.00269179s
Elastic left Cauchy-Green
    0.999996 -1.10169e-15  2.91475e-16
-9.90672e-16     0.999996 -3.35879e-16
-2.96494e-17 -1.90162e-16      1.00002
Logarithmic trial strain
    -2.4e-06 -2.72798e-16  1.74506e-16
-2.45042e-16     -2.4e-06 -4.00349e-17
 1.39447e-17   3.2823e-17  8.99999e-06
Trial stress
      121154 -4.40673e-05  2.81894e-05
-3.95837e-05       121154 -6.46718e-06
 2.25261e-06  5.30217e-06  1.96269e+06
Von Mises = 1.84154
      Internal variable update took 0.000954711s
      Incremental displacement norm 1.69705e-06
      Residual force norm 171338
      Equilibrium iteration required 0.00374015s
    Newton-Raphson iteration 1
      External forces assembly took 8.1e-08s
      Tangent stiffness assembly took 0.000824359s
      PaStiX LLT direct solver took 0.00157641s
Elastic left Cauchy-Green
    0.999995 -5.45592e-16  3.49014e-16
-4.90081e-16     0.999995 -8.00704e-17
 2.78896e-17  6.56464e-17      1.00002
Logarithmic trial strain
    -3.3e-06 -2.02178e-17  1.57848e-16
           0     -3.3e-06 -7.98318e-17
          -0  3.11898e-17  9.99999e-06
Trial stress
     -121154 -3.26596e-06  2.54986e-05
           0      -121154 -1.28959e-05
           0  5.03834e-06  2.02731e+06
Von Mises = 2.14846
      Internal variable update took 0.0016477s
      Incremental displacement norm 8.48527e-07
      Residual force norm 85668.7
      Equilibrium iteration required 0.00410344s
    Newton-Raphson iteration 2
      External forces assembly took 8.2e-08s
      Tangent stiffness assembly took 3.8551e-05s
      PaStiX LLT direct solver took 0.00262298s
Elastic left Cauchy-Green
    0.999993 -4.04354e-17  3.15699e-16
           0     0.999993 -1.59665e-16
           0  6.23799e-17      1.00002
Logarithmic trial strain
    -3.9e-06 -4.86528e-17  1.72406e-16
           0     -3.9e-06 -2.43614e-16
           0 -7.70818e-17      1.1e-05
Trial stress
     -242307 -7.85931e-06  2.78501e-05
           0      -242307  -3.9353e-05
           0 -1.24517e-05  2.16461e+06
Von Mises = 2.40692
      Internal variable update took 0.00142934s
      Incremental displacement norm 8.48527e-07
      Residual force norm 85668.7
      Equilibrium iteration required 0.00414451s
    Newton-Raphson iteration 3
      External forces assembly took 9.5e-08s
      Tangent stiffness assembly took 3.8651e-05s
      PaStiX LLT direct solver took 0.00303963s
Elastic left Cauchy-Green
    0.999992 -9.73049e-17  3.44813e-16
           0     0.999992 -4.87232e-16
           0 -1.54165e-16      1.00002
Logarithmic trial strain
    -3.9e-06 -4.22286e-16  1.59302e-16
-3.39019e-16     -3.9e-06 -5.19604e-16
-1.31033e-17 -3.49602e-16      1.2e-05
Trial stress
     -121154 -6.82155e-05  2.57334e-05
-5.47646e-05      -121154  -8.3936e-05
-2.11669e-06 -5.64742e-05  2.44731e+06
Von Mises = 2.56846
      Internal variable update took 0.000119076s
      Incremental displacement norm 1.69705e-06
      Residual force norm 171337
      Equilibrium iteration required 0.00325048s
    Newton-Raphson iteration 4
      External forces assembly took 8.3e-08s
      Tangent stiffness assembly took 3.7318e-05s
      PaStiX LLT direct solver took 0.00269828s
Elastic left Cauchy-Green
    0.999992 -8.44566e-16  3.18607e-16
-6.78033e-16     0.999992 -1.03922e-15
-2.62068e-17  -6.9921e-16      1.00002
Logarithmic trial strain
    -3.6e-06 -5.70613e-16  1.34446e-16
-4.87346e-16     -3.6e-06  -5.4709e-16
-3.79594e-17 -3.73619e-16      1.3e-05
Trial stress
      121154  -9.2176e-05  2.17182e-05
-7.87251e-05       121154  -8.8376e-05
 -6.1319e-06 -6.03538e-05  2.80269e+06
Von Mises = 2.68154
      Internal variable update took 0.00114882s
      Incremental displacement norm 8.48527e-07
      Residual force norm 85668.7
      Equilibrium iteration required 0.00393371s
    Newton-Raphson iteration 5
      External forces assembly took 8.3e-08s
      Tangent stiffness assembly took 3.6794e-05s
      PaStiX LLT direct solver took 0.00249207s
Elastic left Cauchy-Green
    0.999993 -1.14122e-15  2.68895e-16
-9.74685e-16     0.999993 -1.09419e-15
-7.59195e-17 -7.47245e-16      1.00003
Logarithmic trial strain
    -3.6e-06 -5.24444e-16  2.07672e-16
-4.96688e-16     -3.6e-06 -3.37098e-16
 3.52665e-17 -1.77505e-16      1.4e-05
Trial stress
      242307 -8.47179e-05   3.3547e-05
-8.02342e-05       242307 -5.44544e-05
  5.6969e-06  -2.8674e-05  3.08538e+06
Von Mises = 2.84307
      Internal variable update took 0.00141671s
      Incremental displacement norm 8.48528e-07
      Residual force norm 85668.9
      Equilibrium iteration required 0.00399516s
    Newton-Raphson iteration 6
      External forces assembly took 7e-08s
      Tangent stiffness assembly took 3.7708e-05s
      PaStiX LLT direct solver took 0.00239197s
Elastic left Cauchy-Green
    0.999993 -1.04888e-15  4.15348e-16
-9.93369e-16     0.999993 -6.74204e-16
 7.05338e-17 -3.55015e-16      1.00003
Logarithmic trial strain
    -4.2e-06 -4.15569e-16  2.75439e-16
-4.15569e-16     -4.2e-06 -2.22101e-16
 1.03033e-16 -5.55694e-17      1.5e-05
Trial stress
      121154 -6.71303e-05  4.44939e-05
-6.71303e-05       121154 -3.58779e-05
 1.66438e-05 -8.97659e-06  3.22269e+06
Von Mises = 3.10154
      Internal variable update took 0.00114615s
      Incremental displacement norm 1.69705e-06
      Residual force norm 171338
      Equilibrium iteration required 0.00362649s
    Newton-Raphson iteration 7
      External forces assembly took 9e-08s
      Tangent stiffness assembly took 3.7383e-05s
      PaStiX LLT direct solver took 0.00263141s
Elastic left Cauchy-Green
    0.999992 -8.31131e-16  5.50883e-16
-8.31131e-16     0.999992 -4.44207e-16
 2.06069e-16  -1.1114e-16      1.00003
Logarithmic trial strain
-5.09999e-06 -4.30277e-16   3.3036e-16
-4.58032e-16 -5.09999e-06 -2.63352e-16
 1.57954e-16 -9.68204e-17      1.6e-05
Trial stress
     -121154 -6.95062e-05  5.33658e-05
-7.39898e-05      -121154 -4.25415e-05
 2.55157e-05 -1.56402e-05   3.2873e+06
Von Mises = 3.40846
      Internal variable update took 0.00102434s
      Incremental displacement norm 8.48527e-07
      Residual force norm 85668.7
      Equilibrium iteration required 0.00374277s
    Newton-Raphson iteration 8
      External forces assembly took 8.3e-08s
      Tangent stiffness assembly took 3.6363e-05s
      PaStiX LLT direct solver took 0.00230686s
Elastic left Cauchy-Green
     0.99999 -8.60545e-16  6.60727e-16
-9.16055e-16      0.99999  -5.2671e-16
 3.15912e-16 -1.93643e-16      1.00003
Logarithmic trial strain
-5.69999e-06 -6.94381e-16  2.80473e-16
-7.49894e-16 -5.69999e-06 -5.89417e-16
 1.08068e-16 -4.36763e-16      1.7e-05
Trial stress
     -242307 -0.000112169  4.53072e-05
-0.000121137      -242307 -9.52134e-05
 1.74571e-05  -7.0554e-05  3.42461e+06
Von Mises = 3.66692
      Internal variable update took 0.0014506s
      Incremental displacement norm 8.48527e-07
      Residual force norm 85668.7
      Equilibrium iteration required 0.00384384s
    Newton-Raphson iteration 9
      External forces assembly took 8.4e-08s
      Tangent stiffness assembly took 3.7179e-05s
      PaStiX LLT direct solver took 0.00225225s
Elastic left Cauchy-Green
    0.999989 -1.38875e-15  5.60953e-16
-1.49977e-15     0.999989 -1.17885e-15
 2.16138e-16 -8.73535e-16      1.00003
Logarithmic trial strain
-5.69999e-06 -9.70768e-16   1.8612e-16
-1.02628e-15 -5.69999e-06 -1.04799e-15
 1.37143e-17 -8.97075e-16      1.8e-05
Trial stress
     -121154 -0.000156816  3.00655e-05
-0.000165784      -121154 -0.000169291
 2.21538e-06 -0.000144912   3.7073e+06
Von Mises = 3.82846
      Internal variable update took 0.0015289s
      Incremental displacement norm 1.69705e-06
      Residual force norm 171337
      Equilibrium iteration required 0.00386903s

    Non-convergence detected - step time set to 0.15

    Performing equilibrium iterations for time 0.15
Elastic left Cauchy-Green
    0.999996 -1.12876e-15  2.91475e-16
-9.62226e-16     0.999996 -3.45806e-16
-2.96493e-17 -2.00089e-16      1.00001
Logarithmic trial strain
    -1.8e-06 -6.08206e-16  1.45737e-16
-4.97183e-16     -1.8e-06 -1.73297e-16
-1.48246e-17 -1.02174e-16      7.5e-06
Trial stress
      181731 -9.82486e-05  2.35421e-05
-8.03142e-05       181731 -2.79941e-05
-2.39474e-06  -1.6505e-05  1.68404e+06
Von Mises = 1.50231
      Internal variable update took 0.000122153s
    Newton-Raphson iteration 0
      External forces assembly took 5.6e-08s
      Tangent stiffness assembly took 3.6614e-05s
      PaStiX LLT direct solver took 0.00314772s
Elastic left Cauchy-Green
    0.999996 -1.21641e-15  2.91475e-16
-9.94362e-16     0.999996 -3.46596e-16
-2.96493e-17 -2.04349e-16      1.00002
Logarithmic trial strain
   -2.25e-06  -5.1882e-16   1.7564e-16
-3.80041e-16    -2.25e-06 -1.68392e-16
 1.50794e-17 -1.02473e-16        8e-06
Trial stress
     60576.9 -8.38093e-05  2.83727e-05
-6.13912e-05      60576.9 -2.72019e-05
  2.4359e-06 -1.65534e-05  1.71635e+06
Von Mises = 1.65577
      Internal variable update took 0.000114405s
      Incremental displacement norm 1.27279e-06
      Residual force norm 128503
      Equilibrium iteration required 0.00334703s
    Newton-Raphson iteration 1
      External forces assembly took 8.8e-08s
      Tangent stiffness assembly took 3.7108e-05s
      PaStiX LLT direct solver took 0.00308818s
Elastic left Cauchy-Green
    0.999996 -1.03763e-15  3.51283e-16
-7.60078e-16     0.999996 -3.36787e-16
 3.01589e-17 -2.04948e-16      1.00002
Logarithmic trial strain
   -2.85e-06 -5.18869e-16  1.88994e-16
 -3.8009e-16    -2.85e-06 -2.43493e-16
 2.84326e-17 -1.74104e-16  8.49999e-06
Trial stress
     -121154 -8.38172e-05  3.05297e-05
-6.13991e-05      -121154 -3.93335e-05
 4.59295e-06 -2.81246e-05  1.71231e+06
Von Mises = 1.83346
      Internal variable update took 0.00115146s
      Incremental displacement norm 4.24264e-07
      Residual force norm 42834.4
      Equilibrium iteration required 0.00432606s
    Newton-Raphson iteration 2
      External forces assembly took 7.8e-08s
      Tangent stiffness assembly took 3.7302e-05s
      PaStiX LLT direct solver took 0.00266936s
Elastic left Cauchy-Green
    0.999994 -1.03773e-15  3.77989e-16
-7.60176e-16     0.999994 -4.86989e-16
 5.68654e-17 -3.48211e-16      1.00002
Logarithmic trial strain
   -3.15e-06 -8.26855e-16  1.88215e-16
-6.60321e-16    -3.15e-06 -3.23293e-16
 2.76538e-17 -2.57373e-16  8.99999e-06
Trial stress
     -181731 -0.000133569   3.0404e-05
-0.000106667      -181731 -5.22242e-05
 4.46716e-06 -4.15757e-05  1.78096e+06
Von Mises = 1.96269
      Internal variable update took 0.00115013s
      Incremental displacement norm 8.48527e-07
      Residual force norm 85668.7
      Equilibrium iteration required 0.00390598s
    Newton-Raphson iteration 3
      External forces assembly took 7.9e-08s
      Tangent stiffness assembly took 3.7243e-05s
      PaStiX LLT direct solver took 0.00335938s
Elastic left Cauchy-Green
    0.999994  -1.6537e-15  3.76432e-16
-1.32063e-15     0.999994 -6.46589e-16
  5.5308e-17  -5.1475e-16      1.00002
Logarithmic trial strain
      -3e-06 -1.21784e-15  2.28314e-16
 -1.0513e-15       -3e-06 -3.53669e-16
 6.77531e-17 -2.91219e-16  9.49999e-06
Trial stress
    -60576.8 -0.000196727  3.68815e-05
-0.000169826     -60576.8 -5.71312e-05
 1.09447e-05 -4.70431e-05  1.95865e+06
Von Mises = 2.01923
      Internal variable update took 0.0010723s
      Incremental displacement norm 1.27279e-06
      Residual force norm 128503
      Equilibrium iteration required 0.00452019s
    Newton-Raphson iteration 4
      External forces assembly took 8.3e-08s
      Tangent stiffness assembly took 3.9689e-05s
      PaStiX LLT direct solver took 0.00297952s
Elastic left Cauchy-Green
    0.999994 -2.43566e-15  4.56631e-16
-2.10259e-15     0.999994 -7.07343e-16
 1.35507e-16 -5.82443e-16      1.00002
Logarithmic trial strain
    -2.7e-06  -1.4004e-15  2.66369e-16
-1.20611e-15     -2.7e-06 -3.45212e-16
 1.05808e-16 -2.89701e-16  9.99999e-06
Trial stress
      121154 -0.000226218  4.30289e-05
-0.000194832       121154  -5.5765e-05
 1.70921e-05 -4.67979e-05  2.17269e+06
Von Mises = 2.05154
      Internal variable update took 0.000104283s
      Incremental displacement norm 4.24264e-07
      Residual force norm 42834.4
      Equilibrium iteration required 0.00317369s
    Newton-Raphson iteration 5
      External forces assembly took 7.2e-08s
      Tangent stiffness assembly took 3.6235e-05s
      PaStiX LLT direct solver took 0.00225233s
Elastic left Cauchy-Green
    0.999995 -2.80078e-15  5.32743e-16
 -2.4122e-15     0.999995 -6.90429e-16
 2.11618e-16 -5.79407e-16      1.00002
Logarithmic trial strain
    -2.7e-06 -1.26591e-15  2.69356e-16
-1.07162e-15     -2.7e-06 -2.35899e-16
 1.08795e-16 -1.94266e-16     1.05e-05
Trial stress
      181731 -0.000204494  4.35113e-05
-0.000173108       181731 -3.81068e-05
 1.75745e-05 -3.13815e-05  2.31404e+06
Von Mises = 2.13231
      Internal variable update took 0.00234773s
      Incremental displacement norm 8.48528e-07
      Residual force norm 85668.8
      Equilibrium iteration required 0.00468746s
    Newton-Raphson iteration 6
      External forces assembly took 8.6e-08s
      Tangent stiffness assembly took 3.7292e-05s
      PaStiX LLT direct solver took 0.00245467s
Elastic left Cauchy-Green
    0.999995 -2.53181e-15  5.38716e-16
-2.14324e-15     0.999995 -4.71802e-16
 2.17591e-16 -3.88535e-16      1.00002
Logarithmic trial strain
   -3.15e-06 -9.10552e-16  2.47865e-16
-7.44018e-16    -3.15e-06 -1.02787e-16
 8.73042e-17  -4.0337e-17      1.1e-05
Trial stress
     60576.9 -0.000147089  4.00398e-05
-0.000120188      60576.9  -1.6604e-05
  1.4103e-05 -6.51597e-06  2.34634e+06
Von Mises = 2.28577
      Internal variable update took 0.0011875s
      Incremental displacement norm 1.27279e-06
      Residual force norm 128503
      Equilibrium iteration required 0.00373368s
    Newton-Raphson iteration 7
      External forces assembly took 9.5e-08s
      Tangent stiffness assembly took 3.7318e-05s
      PaStiX LLT direct solver took 0.00289963s
Elastic left Cauchy-Green
    0.999994 -1.82109e-15  4.95734e-16
-1.48803e-15     0.999994 -2.05575e-16
  1.7461e-16 -8.06746e-17      1.00002
Logarithmic trial strain
   -3.75e-06 -8.90222e-16  2.32258e-16
-7.23688e-16    -3.75e-06 -1.85102e-16
  7.1697e-17 -1.29591e-16     1.15e-05
Trial stress
     -121154 -0.000143805  3.75186e-05
-0.000116903      -121154  -2.9901e-05
 1.15818e-05 -2.09339e-05  2.34231e+06
Von Mises = 2.46346
      Internal variable update took 0.00120932s
      Incremental displacement norm 4.24264e-07
      Residual force norm 42834.4
      Equilibrium iteration required 0.00419718s
    Newton-Raphson iteration 8
      External forces assembly took 8.3e-08s
      Tangent stiffness assembly took 4.2217e-05s
      PaStiX LLT direct solver took 0.00254665s
Elastic left Cauchy-Green
    0.999993 -1.78043e-15   4.6452e-16
-1.44736e-15     0.999993 -3.70206e-16
 1.43395e-16 -2.59184e-16      1.00002
Logarithmic trial strain
   -4.05e-06   -1.287e-15  1.77869e-16
-1.12046e-15    -4.05e-06 -5.71604e-16
 1.73079e-17 -5.16961e-16      1.2e-05
Trial stress
     -181731   -0.0002079  2.87327e-05
-0.000180998      -181731 -9.23361e-05
 2.79589e-06 -8.35091e-05  2.41096e+06
Von Mises = 2.59269
      Internal variable update took 0.00115725s
      Incremental displacement norm 8.48527e-07
      Residual force norm 85668.7
      Equilibrium iteration required 0.00379724s
    Newton-Raphson iteration 9
      External forces assembly took 8.3e-08s
      Tangent stiffness assembly took 3.7526e-05s
      PaStiX LLT direct solver took 0.00253385s
Elastic left Cauchy-Green
    0.999992 -2.57397e-15  3.55741e-16
-2.24091e-15     0.999992 -1.14322e-15
 3.46161e-17 -1.03393e-15      1.00002
Logarithmic trial strain
    -3.9e-06 -1.87499e-15  1.79353e-16
 -1.6807e-15     -3.9e-06 -1.04265e-15
 1.87923e-17 -9.88011e-16     1.25e-05
Trial stress
    -60576.8 -0.000302883  2.89725e-05
-0.000271498     -60576.8 -0.000168429
 3.03567e-06 -0.000159602  2.58865e+06
Von Mises = 2.64923
      Internal variable update took 0.001124s
      Incremental displacement norm 1.27279e-06
      Residual force norm 128503
      Equilibrium iteration required 0.00374543s

    Non-convergence detected - step time set to 0.125

    Performing equilibrium iterations for time 0.125
Elastic left Cauchy-Green
    0.999996 -1.12876e-15  2.91475e-16
-9.62226e-16     0.999996 -3.45806e-16
-2.96493e-17 -2.00089e-16      1.00001
Logarithmic trial strain
    -1.8e-06 -5.63451e-16  1.45737e-16
-5.07939e-16     -1.8e-06 -1.70223e-16
-1.48246e-17 -1.02569e-16     7.25e-06
Trial stress
      151442  -9.1019e-05  2.35421e-05
-8.20517e-05       151442 -2.74975e-05
-2.39474e-06 -1.65688e-05  1.61336e+06
Von Mises = 1.46192
      Internal variable update took 8.3949e-05s
    Newton-Raphson iteration 0
      External forces assembly took 8.2e-08s
      Tangent stiffness assembly took 3.6312e-05s
      PaStiX LLT direct solver took 0.00265573s
Elastic left Cauchy-Green
    0.999996  -1.1269e-15  2.91475e-16
-1.01588e-15     0.999996 -3.40448e-16
-2.96493e-17 -2.05139e-16      1.00001
Logarithmic trial strain
  -2.175e-06 -3.98464e-16  1.69152e-16
-3.42953e-16   -2.175e-06  -1.9763e-16
  8.5909e-18 -1.33445e-16      7.5e-06
Trial stress
     30288.5 -6.43673e-05  2.73246e-05
   -5.54e-05      30288.5 -3.19248e-05
 1.38776e-06 -2.15566e-05  1.59317e+06
Von Mises = 1.56288
      Internal variable update took 0.00159024s
      Incremental displacement norm 1.06066e-06
      Residual force norm 107086
      Equilibrium iteration required 0.0043301s
    Newton-Raphson iteration 1
      External forces assembly took 8.2e-08s
      Tangent stiffness assembly took 3.8575e-05s
      PaStiX LLT direct solver took 0.00264106s
Elastic left Cauchy-Green
    0.999996 -7.96925e-16  3.38306e-16
-6.85902e-16     0.999996 -3.95262e-16
 1.71819e-17 -2.66892e-16      1.00002
Logarithmic trial strain
  -2.625e-06 -2.71772e-16  1.56051e-16
 -2.1626e-16   -2.625e-06 -3.07441e-16
-4.50974e-18 -2.39787e-16     7.75e-06
Trial stress
     -121154 -4.39016e-05  2.52083e-05
-3.49344e-05      -121154 -4.96636e-05
-7.28497e-07 -3.87349e-05  1.55481e+06
Von Mises = 1.67596
      Internal variable update took 0.000645865s
      Incremental displacement norm 2.12132e-07
      Residual force norm 21417.2
      Equilibrium iteration required 0.00337998s
    Newton-Raphson iteration 2
      External forces assembly took 8.1e-08s
      Tangent stiffness assembly took 3.7332e-05s
      PaStiX LLT direct solver took 0.00256501s
Elastic left Cauchy-Green
    0.999995 -5.43541e-16  3.12104e-16
-4.32519e-16     0.999995 -6.14885e-16
-9.01953e-18 -4.79577e-16      1.00002
Logarithmic trial strain
  -2.775e-06 -5.30541e-16  1.54275e-16
-4.19518e-16   -2.775e-06 -4.60943e-16
-6.28599e-18 -3.90687e-16        8e-06
Trial stress
     -151442 -8.57027e-05  2.49214e-05
-6.77683e-05      -151442   -7.446e-05
-1.01543e-06 -6.31109e-05  1.58913e+06
Von Mises = 1.74058
      Internal variable update took 0.00117032s
      Incremental displacement norm 8.48527e-07
      Residual force norm 85668.7
      Equilibrium iteration required 0.00382724s
    Newton-Raphson iteration 3
      External forces assembly took 7.9e-08s
      Tangent stiffness assembly took 3.6857e-05s
      PaStiX LLT direct solver took 0.00255966s
Elastic left Cauchy-Green
    0.999994 -1.06108e-15  3.08552e-16
-8.39031e-16     0.999994  -9.2189e-16
-1.25721e-17 -7.81377e-16      1.00002
Logarithmic trial strain
   -2.55e-06 -1.05608e-15  1.70804e-16
-9.45054e-16    -2.55e-06 -5.86179e-16
 1.02424e-17 -5.13321e-16     8.25e-06
Trial stress
    -30288.4 -0.000170597  2.75913e-05
-0.000152663     -30288.4 -9.46904e-05
 1.65455e-06 -8.29211e-05  1.71433e+06
Von Mises = 1.74461
      Internal variable update took 0.00112245s
      Incremental displacement norm 1.06066e-06
      Residual force norm 107086
      Equilibrium iteration required 0.00376857s
    Newton-Raphson iteration 4
      External forces assembly took 8.5e-08s
      Tangent stiffness assembly took 3.7189e-05s
      PaStiX LLT direct solver took 0.00321149s
Elastic left Cauchy-Green
    0.999995 -2.11214e-15  3.41609e-16
 -1.8901e-15     0.999995 -1.17236e-15
  2.0485e-17 -1.02665e-15      1.00002
Logarithmic trial strain
   -2.25e-06 -1.39391e-15  1.51216e-16
-1.31064e-15    -2.25e-06 -5.32212e-16
-9.34464e-18 -4.58053e-16  8.49999e-06
Trial stress
      121154  -0.00022517  2.44273e-05
 -0.00021172       121154 -8.59728e-05
-1.50952e-06 -7.39932e-05  1.85769e+06
Von Mises = 1.73654
      Internal variable update took 0.000123638s
      Incremental displacement norm 2.12132e-07
      Residual force norm 21417.2
      Equilibrium iteration required 0.00342151s
    Newton-Raphson iteration 5
      External forces assembly took 8.3e-08s
      Tangent stiffness assembly took 3.6942e-05s
      PaStiX LLT direct solver took 0.00301981s
Elastic left Cauchy-Green
    0.999996 -2.78781e-15  3.02435e-16
-2.62128e-15     0.999996 -1.06443e-15
-1.86894e-17 -9.16113e-16      1.00002
Logarithmic trial strain
   -2.25e-06  -1.4462e-15  1.65515e-16
-1.41844e-15    -2.25e-06 -4.90714e-16
 4.95395e-18 -4.16555e-16  8.74999e-06
Trial stress
      151442 -0.000233616   2.6737e-05
-0.000229132       151442 -7.92691e-05
 8.00253e-07 -6.72896e-05  1.92836e+06
Von Mises = 1.77692
      Internal variable update took 0.000788823s
      Incremental displacement norm 8.48528e-07
      Residual force norm 85668.8
      Equilibrium iteration required 0.00389415s
    Newton-Raphson iteration 6
      External forces assembly took 7.9e-08s
      Tangent stiffness assembly took 3.6679e-05s
      PaStiX LLT direct solver took 0.00288318s
Elastic left Cauchy-Green
    0.999996 -2.89238e-15  3.31032e-16
-2.83687e-15     0.999996 -9.81433e-16
 9.90796e-18 -8.33115e-16      1.00002
Logarithmic trial strain
  -2.625e-06 -1.17421e-15  1.55435e-16
-1.14646e-15   -2.625e-06 -6.01482e-16
-5.12587e-18 -5.28191e-16  8.99999e-06
Trial stress
     30288.5  -0.00018968  2.51088e-05
-0.000185197      30288.5 -9.71625e-05
-8.28025e-07 -8.53231e-05  1.90817e+06
Von Mises = 1.87788
      Internal variable update took 0.00118297s
      Incremental displacement norm 1.06066e-06
      Residual force norm 107086
      Equilibrium iteration required 0.00415428s
    Newton-Raphson iteration 7
      External forces assembly took 8.7e-08s
      Tangent stiffness assembly took 3.8146e-05s
      PaStiX LLT direct solver took 0.00252651s
Elastic left Cauchy-Green
    0.999995 -2.34841e-15  3.10872e-16
 -2.2929e-15     0.999995 -1.20297e-15
-1.02518e-17 -1.05639e-15      1.00002
Logarithmic trial strain
  -3.075e-06 -9.98974e-16  1.39471e-16
-9.98974e-16   -3.075e-06 -9.16715e-16
-2.10902e-17 -8.40387e-16  9.24999e-06
Trial stress
     -121154 -0.000161373  2.25299e-05
-0.000161373      -121154 -0.000148085
-3.40689e-06 -0.000135755  1.86981e+06
Von Mises = 1.99096
      Internal variable update took 0.00112786s
      Incremental displacement norm 2.12132e-07
      Residual force norm 21417.2
      Equilibrium iteration required 0.00376471s
    Newton-Raphson iteration 8
      External forces assembly took 9.2e-08s
      Tangent stiffness assembly took 3.6984e-05s
      PaStiX LLT direct solver took 0.00263237s
Elastic left Cauchy-Green
    0.999994 -1.99794e-15  2.78943e-16
-1.99793e-15     0.999994 -1.83344e-15
-4.21807e-17 -1.68079e-15      1.00002
Logarithmic trial strain
  -3.225e-06 -1.06746e-15  1.29486e-16
-1.09521e-15   -3.225e-06 -1.12507e-15
-3.10747e-17 -1.04874e-15  9.49999e-06
Trial stress
     -151442 -0.000172436   2.0917e-05
-0.000176919      -151442 -0.000181742
-5.01975e-06 -0.000169412  1.90413e+06
Von Mises = 2.05558
      Internal variable update took 0.00199462s
      Incremental displacement norm 8.48527e-07
      Residual force norm 85668.7
      Equilibrium iteration required 0.00471316s
    Newton-Raphson iteration 9
      External forces assembly took 8.8e-08s
      Tangent stiffness assembly took 3.9775e-05s
      PaStiX LLT direct solver took 0.00219198s
Elastic left Cauchy-Green
    0.999994  -2.1349e-15  2.58974e-16
-2.19041e-15     0.999994 -2.25015e-15
-6.21497e-17  -2.0975e-15      1.00002
Logarithmic trial strain
      -3e-06 -1.26681e-15   1.2974e-16
-1.26681e-15       -3e-06 -1.09675e-15
-3.08214e-17 -1.02737e-15  9.74999e-06
Trial stress
    -30288.4 -0.000204639  2.09579e-05
-0.000204639     -30288.4 -0.000177168
-4.97885e-06 -0.000165959  2.02933e+06
Von Mises = 2.05961
      Internal variable update took 0.000104034s
      Incremental displacement norm 1.06066e-06
      Residual force norm 107086
      Equilibrium iteration required 0.00238542s

    Non-convergence detected - step time set to 0.1125

    Performing equilibrium iterations for time 0.1125
Elastic left Cauchy-Green
    0.999996 -1.12876e-15  2.91475e-16
-9.62226e-16     0.999996 -3.45806e-16
-2.96493e-17 -2.00089e-16      1.00001
Logarithmic trial strain
    -1.8e-06 -5.86699e-16  1.45737e-16
-5.31187e-16     -1.8e-06 -1.67608e-16
-1.48246e-17 -9.12811e-17    7.125e-06
Trial stress
      136298 -9.47744e-05  2.35421e-05
-8.58072e-05       136298 -2.70752e-05
-2.39474e-06 -1.47454e-05  1.57803e+06
Von Mises = 1.44173
      Internal variable update took 8.0895e-05s
    Newton-Raphson iteration 0
      External forces assembly took 7.6e-08s
      Tangent stiffness assembly took 3.5897e-05s
      PaStiX LLT direct solver took 0.00256702s
Elastic left Cauchy-Green
    0.999996 -1.17339e-15  2.91475e-16
-1.06237e-15     0.999996 -3.35219e-16
-2.96493e-17 -1.82563e-16      1.00001
Logarithmic trial strain
 -2.1375e-06 -3.95448e-16  1.48099e-16
-3.39937e-16  -2.1375e-06 -8.36664e-17
-1.24624e-17 -4.00083e-19     7.25e-06
Trial stress
     15144.2 -6.38801e-05  2.39236e-05
-5.49129e-05      15144.2 -1.35153e-05
-2.01316e-06 -6.46287e-08  1.53159e+06
Von Mises = 1.51644
      Internal variable update took 0.00164065s
      Incremental displacement norm 9.54593e-07
      Residual force norm 96377.3
      Equilibrium iteration required 0.00471879s
    Newton-Raphson iteration 1
      External forces assembly took 8.3e-08s
      Tangent stiffness assembly took 3.7292e-05s
      PaStiX LLT direct solver took 0.00260017s
Elastic left Cauchy-Green
    0.999996 -7.90893e-16  2.96199e-16
-6.79871e-16     0.999996 -1.67334e-16
-2.49249e-17  -8.0017e-19      1.00001
Logarithmic trial strain
 -2.5125e-06 -3.52224e-16  1.45402e-16
-2.68957e-16  -2.5125e-06 -1.08458e-16
-1.51589e-17 -2.86614e-17    7.375e-06
Trial stress
     -121154 -5.68977e-05   2.3488e-05
-4.34469e-05      -121154 -1.75202e-05
-2.44875e-06 -4.62992e-06  1.47606e+06
Von Mises = 1.59721
      Internal variable update took 0.00129852s
      Incremental displacement norm 1.06066e-07
      Residual force norm 10708.6
      Equilibrium iteration required 0.0039877s
    Newton-Raphson iteration 2
      External forces assembly took 8e-08s
      Tangent stiffness assembly took 0.000101388s
      PaStiX LLT direct solver took 0.00238811s
Elastic left Cauchy-Green
    0.999995 -7.04445e-16  2.90806e-16
-5.37911e-16     0.999995 -2.16918e-16
 -3.0318e-17 -5.73231e-17      1.00001
Logarithmic trial strain
 -2.5875e-06 -5.55742e-16  8.75166e-17
-5.00231e-16  -2.5875e-06 -3.35838e-16
-7.30445e-17 -2.38694e-16      7.5e-06
Trial stress
     -136298 -8.97738e-05  1.41373e-05
-8.08065e-05      -136298 -5.42507e-05
-1.17995e-05 -3.85582e-05  1.49322e+06
Von Mises = 1.62952
      Internal variable update took 0.00112257s
      Incremental displacement norm 8.48527e-07
      Residual force norm 85668.7
      Equilibrium iteration required 0.00366482s
    Newton-Raphson iteration 3
      External forces assembly took 8.2e-08s
      Tangent stiffness assembly took 3.7144e-05s
      PaStiX LLT direct solver took 0.00272604s
Elastic left Cauchy-Green
    0.999995 -1.11148e-15  1.75034e-16
-1.00046e-15     0.999995 -6.71679e-16
 -1.4609e-16  -4.7739e-16      1.00002
Logarithmic trial strain
  -2.325e-06 -9.71529e-16  4.65233e-17
-9.16018e-16   -2.325e-06 -7.50957e-16
-1.14038e-16 -6.53813e-16    7.625e-06
Trial stress
    -15144.2 -0.000156939   7.5153e-06
-0.000147972     -15144.2 -0.000121308
-1.84215e-05 -0.000105616  1.59216e+06
Von Mises = 1.60731
      Internal variable update took 0.00107957s
      Incremental displacement norm 9.54594e-07
      Residual force norm 96377.3
      Equilibrium iteration required 0.00389175s
    Newton-Raphson iteration 4
      External forces assembly took 8.5e-08s
      Tangent stiffness assembly took 3.7725e-05s
      PaStiX LLT direct solver took 0.00237613s
Elastic left Cauchy-Green
    0.999995 -1.94305e-15  9.30471e-17
-1.83203e-15     0.999995 -1.50192e-15
-2.28077e-16 -1.30763e-15      1.00002
Logarithmic trial strain
  -2.025e-06 -1.30571e-15  7.81155e-17
-1.19469e-15   -2.025e-06 -1.07589e-15
-8.24456e-17 -9.92625e-16     7.75e-06
Trial stress
      121154 -0.000210922  1.26187e-05
-0.000192988       121154 -0.000173798
-1.33181e-05 -0.000160347  1.70019e+06
Von Mises = 1.57904
      Internal variable update took 0.00162461s
      Incremental displacement norm 1.06066e-07
      Residual force norm 10708.6
      Equilibrium iteration required 0.00408938s
    Newton-Raphson iteration 5
      External forces assembly took 8.2e-08s
      Tangent stiffness assembly took 3.6941e-05s
      PaStiX LLT direct solver took 0.00339855s
Elastic left Cauchy-Green
    0.999996 -2.61141e-15  1.56232e-16
-2.38936e-15     0.999996 -2.15179e-15
-1.64892e-16 -1.98526e-15      1.00002
Logarithmic trial strain
  -2.025e-06 -1.21595e-15  1.43666e-16
-1.10493e-15   -2.025e-06 -1.03405e-15
-1.68956e-17 -9.47311e-16    7.875e-06
Trial stress
      136298 -0.000196423  2.32075e-05
-0.000178488       136298 -0.000167038
-2.72929e-06 -0.000153027  1.73553e+06
Von Mises = 1.59923
      Internal variable update took 0.000129103s
      Incremental displacement norm 8.48528e-07
      Residual force norm 85668.8
      Equilibrium iteration required 0.00361493s
    Newton-Raphson iteration 6
      External forces assembly took 8.3e-08s
      Tangent stiffness assembly took 3.6677e-05s
      PaStiX LLT direct solver took 0.00300428s
Elastic left Cauchy-Green
    0.999996 -2.43189e-15  2.87333e-16
-2.20985e-15     0.999996 -2.06811e-15
-3.37914e-17 -1.89463e-15      1.00002
Logarithmic trial strain
 -2.3625e-06 -8.31593e-16  2.11455e-16
 -7.2057e-16  -2.3625e-06 -7.05179e-16
 5.08943e-17 -6.21912e-16        8e-06
Trial stress
     15144.2 -0.000134334  3.41582e-05
  -0.0001164      15144.2 -0.000113913
 8.22138e-06 -0.000100463  1.68909e+06
Von Mises = 1.67394
      Internal variable update took 0.000642014s
      Incremental displacement norm 9.54593e-07
      Residual force norm 96377.3
      Equilibrium iteration required 0.00373174s
    Newton-Raphson iteration 7
      External forces assembly took 7.8e-08s
      Tangent stiffness assembly took 3.7966e-05s
      PaStiX LLT direct solver took 0.00244515s
Elastic left Cauchy-Green
    0.999995 -1.66318e-15  4.22913e-16
-1.44113e-15     0.999995 -1.41037e-15
 1.01789e-16 -1.24383e-15      1.00002
Logarithmic trial strain
 -2.7375e-06 -6.88968e-16  2.01071e-16
-5.50189e-16  -2.7375e-06   -6.241e-16
 4.05102e-17 -5.47773e-16    8.125e-06
Trial stress
     -121154 -0.000111295  3.24808e-05
-8.88767e-05      -121154 -0.000100816
 6.54396e-06 -8.84864e-05  1.63356e+06
Von Mises = 1.75471
      Internal variable update took 0.00110191s
      Incremental displacement norm 1.06066e-07
      Residual force norm 10708.6
      Equilibrium iteration required 0.00363514s
    Newton-Raphson iteration 8
      External forces assembly took 8.2e-08s
      Tangent stiffness assembly took 3.662e-05s
      PaStiX LLT direct solver took 0.00250029s
Elastic left Cauchy-Green
    0.999995 -1.37793e-15  4.02145e-16
-1.10037e-15     0.999995 -1.24821e-15
 8.10209e-17 -1.09555e-15      1.00002
Logarithmic trial strain
 -2.8125e-06  -1.0726e-15  1.36009e-16
-9.89337e-16  -2.8125e-06 -9.55764e-16
-2.45518e-17 -8.81171e-16     8.25e-06
Trial stress
     -136298 -0.000173267  2.19707e-05
-0.000159816      -136298 -0.000154393
-3.96606e-06 -0.000142343  1.65072e+06
Von Mises = 1.78702
      Internal variable update took 0.001111s
      Incremental displacement norm 8.48527e-07
      Residual force norm 85668.7
      Equilibrium iteration required 0.00369703s
    Newton-Raphson iteration 9
      External forces assembly took 8.4e-08s
      Tangent stiffness assembly took 3.664e-05s
      PaStiX LLT direct solver took 0.00341226s
Elastic left Cauchy-Green
    0.999994  -2.1452e-15   2.7202e-16
-1.97866e-15     0.999994 -1.91154e-15
-4.91039e-17 -1.76235e-15      1.00002
Logarithmic trial strain
   -2.55e-06  -1.6818e-15  1.25927e-16
 -1.6818e-15    -2.55e-06 -1.35582e-15
-3.46337e-17 -1.28122e-15    8.375e-06
Trial stress
    -15144.2 -0.000271676  2.03421e-05
-0.000271676     -15144.2 -0.000219017
-5.59467e-06 -0.000206967  1.74966e+06
Von Mises = 1.76481
      Internal variable update took 0.000135069s
      Incremental displacement norm 9.54594e-07
      Residual force norm 96377.3
      Equilibrium iteration required 0.00363448s

    Non-convergence detected - step time set to 0.10625

    Performing equilibrium iterations for time 0.10625
Elastic left Cauchy-Green
    0.999996 -1.12876e-15  2.91475e-16
-9.62226e-16     0.999996 -3.45806e-16
-2.96493e-17 -2.00089e-16      1.00001
Logarithmic trial strain
    -1.8e-06 -5.13648e-16  1.45737e-16
-4.85893e-16     -1.8e-06 -1.72853e-16
-1.48246e-17 -1.05199e-16   7.0625e-06
Trial stress
      128726  -8.2974e-05  2.35421e-05
-7.84903e-05       128726 -2.79224e-05
-2.39474e-06 -1.69937e-05  1.56036e+06
Von Mises = 1.43163
      Internal variable update took 8.0916e-05s
    Newton-Raphson iteration 0
      External forces assembly took 8.4e-08s
      Tangent stiffness assembly took 3.7409e-05s
      PaStiX LLT direct solver took 0.00261626s
Elastic left Cauchy-Green
    0.999996 -1.02729e-15  2.91475e-16
-9.71782e-16     0.999996 -3.45708e-16
-2.96493e-17   -2.104e-16      1.00001
Logarithmic trial strain
-2.11875e-06 -4.16052e-16  1.65911e-16
 -3.6054e-16 -2.11875e-06   -1.864e-16
 5.35004e-18 -1.17012e-16    7.125e-06
Trial stress
     7572.13 -6.72084e-05   2.6801e-05
-5.82411e-05      7572.13 -3.01108e-05
 8.64237e-07 -1.89019e-05  1.50079e+06
Von Mises = 1.49322
      Internal variable update took 0.00152494s
      Incremental displacement norm 9.0156e-07
      Residual force norm 91023
      Equilibrium iteration required 0.00422794s
    Newton-Raphson iteration 1
      External forces assembly took 6.7e-08s
      Tangent stiffness assembly took 3.6816e-05s
      PaStiX LLT direct solver took 0.00249999s
Elastic left Cauchy-Green
    0.999996   -8.321e-16  3.31824e-16
-7.21078e-16     0.999996 -3.72803e-16
 1.07001e-17 -2.34025e-16      1.00001
Logarithmic trial strain
-2.45625e-06 -4.57862e-16  1.78026e-16
-4.30107e-16 -2.45625e-06 -3.46284e-16
 1.74653e-17 -2.90774e-16   7.1875e-06
Trial stress
     -121154 -7.39624e-05  2.87581e-05
-6.94788e-05      -121154 -5.59383e-05
 2.82132e-06 -4.69711e-05  1.43668e+06
Von Mises = 1.55784
      Internal variable update took 0.00117048s
      Incremental displacement norm 5.30331e-08
      Residual force norm 5354.31
      Equilibrium iteration required 0.00376854s
    Newton-Raphson iteration 2
      External forces assembly took 7.6e-08s
      Tangent stiffness assembly took 3.7406e-05s
      PaStiX LLT direct solver took 0.00248642s
Elastic left Cauchy-Green
    0.999995  -9.1572e-16  3.56055e-16
-8.60209e-16     0.999995 -6.92572e-16
 3.49308e-17  -5.8155e-16      1.00001
Logarithmic trial strain
-2.49375e-06 -6.16735e-16  1.32796e-16
-6.44491e-16 -2.49375e-06 -5.93408e-16
-2.77656e-17 -5.41367e-16     7.25e-06
Trial stress
     -128726 -9.96265e-05  2.14516e-05
 -0.00010411      -128726 -9.58583e-05
-4.48521e-06 -8.74516e-05  1.44526e+06
Von Mises = 1.57399
      Internal variable update took 0.00115339s
      Incremental displacement norm 8.48528e-07
      Residual force norm 85668.7
      Equilibrium iteration required 0.00373049s
    Newton-Raphson iteration 3
      External forces assembly took 7.9e-08s
      Tangent stiffness assembly took 3.7019e-05s
      PaStiX LLT direct solver took 0.00828865s
Elastic left Cauchy-Green
    0.999995 -1.23346e-15  2.65592e-16
-1.28898e-15     0.999995 -1.18682e-15
-5.55314e-17 -1.08274e-15      1.00001
Logarithmic trial strain
 -2.2125e-06 -9.52341e-16  1.36041e-16
-1.03561e-15  -2.2125e-06  -7.1911e-16
  -2.452e-17 -6.65333e-16   7.3125e-06
Trial stress
    -7572.09  -0.00015384  2.19759e-05
-0.000167291     -7572.09 -0.000116164
-3.96092e-06 -0.000107477  1.53108e+06
Von Mises = 1.53865
      Internal variable update took 0.000877191s
      Incremental displacement norm 9.01561e-07
      Residual force norm 91023
      Equilibrium iteration required 0.00926239s
    Newton-Raphson iteration 4
      External forces assembly took 1.38e-07s
      Tangent stiffness assembly took 4.3367e-05s
      PaStiX LLT direct solver took 0.00266677s
Elastic left Cauchy-Green
    0.999996 -1.90467e-15  2.72084e-16
-2.07121e-15     0.999996 -1.43823e-15
-4.90402e-17 -1.33067e-15      1.00001
Logarithmic trial strain
 -1.9125e-06 -1.15795e-15   1.6487e-16
-1.21346e-15  -1.9125e-06 -6.49272e-16
 4.30904e-18 -5.95496e-16    7.375e-06
Trial stress
      121154 -0.000187053  2.66329e-05
-0.000196021       121154 -0.000104882
 6.96076e-07 -9.61955e-05  1.62144e+06
Von Mises = 1.50029
      Internal variable update took 0.000714658s
      Incremental displacement norm 5.30328e-08
      Residual force norm 5354.28
      Equilibrium iteration required 0.00347835s
    Newton-Raphson iteration 5
      External forces assembly took 1.41e-07s
      Tangent stiffness assembly took 3.689e-05s
      PaStiX LLT direct solver took 0.00752718s
Elastic left Cauchy-Green
    0.999996 -2.31589e-15  3.29742e-16
-2.42691e-15     0.999996 -1.29855e-15
 8.61813e-18   -1.191e-15      1.00001
Logarithmic trial strain
 -1.9125e-06 -9.99643e-16  2.17332e-16
 -1.0274e-15  -1.9125e-06 -4.44291e-16
 5.67711e-17 -3.95719e-16   7.4375e-06
Trial stress
      128726 -0.000161481  3.51075e-05
-0.000165964       128726   -7.177e-05
 9.17072e-06 -6.39238e-05  1.63911e+06
Von Mises = 1.51038
      Internal variable update took 0.00121613s
      Incremental displacement norm 8.48528e-07
      Residual force norm 85668.8
      Equilibrium iteration required 0.00883903s
    Newton-Raphson iteration 6
      External forces assembly took 1.3e-07s
      Tangent stiffness assembly took 4.2246e-05s
      PaStiX LLT direct solver took 0.00261666s
Elastic left Cauchy-Green
    0.999996 -1.99928e-15  4.34667e-16
-2.05479e-15     0.999996 -8.88586e-16
 1.13543e-16 -7.91442e-16      1.00001
Logarithmic trial strain
-2.23125e-06 -8.68747e-16  2.76695e-16
-8.96503e-16 -2.23125e-06   -3.959e-16
 1.16134e-16 -3.26511e-16      7.5e-06
Trial stress
     7572.13 -0.000140336  4.46968e-05
 -0.00014482      7572.13  -6.3953e-05
   1.876e-05 -5.27441e-05  1.57954e+06
Von Mises = 1.57197
      Internal variable update took 0.00113059s
      Incremental displacement norm 9.0156e-07
      Residual force norm 91023
      Equilibrium iteration required 0.00384254s
    Newton-Raphson iteration 7
      External forces assembly took 1.46e-07s
      Tangent stiffness assembly took 3.7442e-05s
      PaStiX LLT direct solver took 0.00261244s
Elastic left Cauchy-Green
    0.999996 -1.73749e-15  5.53392e-16
  -1.793e-15     0.999996 -7.91804e-16
 2.32268e-16 -6.53026e-16      1.00002
Logarithmic trial strain
-2.56875e-06  -9.0194e-16  2.61729e-16
-9.29696e-16 -2.56875e-06  -5.8326e-16
 1.01168e-16 -5.13871e-16   7.5625e-06
Trial stress
     -121154 -0.000145698  4.22794e-05
-0.000150182      -121154 -9.42189e-05
 1.63426e-05 -8.30099e-05  1.51543e+06
Von Mises = 1.63659
      Internal variable update took 0.00114778s
      Incremental displacement norm 5.30331e-08
      Residual force norm 5354.31
      Equilibrium iteration required 0.00384805s
    Newton-Raphson iteration 8
      External forces assembly took 9.4e-08s
      Tangent stiffness assembly took 3.7597e-05s
      PaStiX LLT direct solver took 0.0027829s
Elastic left Cauchy-Green
    0.999995 -1.80387e-15  5.23461e-16
-1.85938e-15     0.999995 -1.16653e-15
 2.02337e-16 -1.02775e-15      1.00002
Logarithmic trial strain
-2.60625e-06 -1.20653e-15  1.71575e-16
-1.23428e-15 -2.60625e-06  -9.9966e-16
 1.10141e-17 -9.30272e-16    7.625e-06
Trial stress
     -128726   -0.0001949   2.7716e-05
-0.000199384      -128726 -0.000161484
  1.7792e-06 -0.000150275  1.52401e+06
Von Mises = 1.65274
      Internal variable update took 0.000631654s
      Incremental displacement norm 8.48528e-07
      Residual force norm 85668.7
      Equilibrium iteration required 0.00350202s
    Newton-Raphson iteration 9
      External forces assembly took 7.2e-08s
      Tangent stiffness assembly took 3.6866e-05s
      PaStiX LLT direct solver took 0.00373277s
Elastic left Cauchy-Green
    0.999995 -2.41304e-15  3.43152e-16
-2.46855e-15     0.999995 -1.99933e-15
 2.20283e-17 -1.86055e-15      1.00002
Logarithmic trial strain
  -2.325e-06 -1.49899e-15  3.64097e-17
-1.58225e-15   -2.325e-06 -1.36509e-15
-1.24151e-16 -1.28877e-15   7.6875e-06
Trial stress
    -7572.09 -0.000242144  5.88157e-06
-0.000255595     -7572.09 -0.000220515
-2.00552e-05 -0.000208185  1.60983e+06
Von Mises = 1.6174
      Internal variable update took 0.00113285s
      Incremental displacement norm 9.01561e-07
      Residual force norm 91023
      Equilibrium iteration required 0.00495569s

    Non-convergence detected - step time set to 0.103125

    Performing equilibrium iterations for time 0.103125
Elastic left Cauchy-Green
    0.999996 -1.12876e-15  2.91475e-16
-9.62226e-16     0.999996 -3.45806e-16
-2.96493e-17 -2.00089e-16      1.00001
Logarithmic trial strain
    -1.8e-06  -5.3711e-16  1.45737e-16
-4.53843e-16     -1.8e-06 -1.73261e-16
-1.48246e-17 -1.03872e-16  7.03125e-06
Trial stress
      124940  -8.6764e-05  2.35421e-05
-7.33132e-05       124940 -2.79883e-05
-2.39474e-06 -1.67794e-05  1.55153e+06
Von Mises = 1.42659
      Internal variable update took 8.4945e-05s
    Newton-Raphson iteration 0
      External forces assembly took 1.44e-07s
      Tangent stiffness assembly took 3.8948e-05s
      PaStiX LLT direct solver took 0.00419482s
Elastic left Cauchy-Green
    0.999996 -1.07422e-15  2.91475e-16
-9.07683e-16     0.999996 -3.46524e-16
-2.96493e-17 -2.07746e-16      1.00001
Logarithmic trial strain
-2.10937e-06 -3.92974e-16  1.72502e-16
-2.81951e-16 -2.10937e-06 -1.47421e-16
 1.19404e-17 -7.45629e-17   7.0625e-06
Trial stress
     3786.07 -6.34804e-05  2.78656e-05
 -4.5546e-05      3786.07 -2.38141e-05
 1.92884e-06 -1.20448e-05   1.4854e+06
Von Mises = 1.48161
      Internal variable update took 0.000669887s
      Incremental displacement norm 8.75044e-07
      Residual force norm 88345.9
      Equilibrium iteration required 0.0049547s
    Newton-Raphson iteration 1
      External forces assembly took 8.4e-08s
      Tangent stiffness assembly took 4.0287e-05s
      PaStiX LLT direct solver took 0.00260079s
Elastic left Cauchy-Green
    0.999996 -7.85945e-16  3.45005e-16
  -5.639e-16     0.999996 -2.94843e-16
  2.3881e-17 -1.49126e-16      1.00001
Logarithmic trial strain
-2.42812e-06 -2.17295e-16    1.356e-16
           0 -2.42812e-06 -2.75406e-16
           0  -2.4765e-16  7.09375e-06
Trial stress
     -121154 -3.51015e-05  2.19047e-05
           0      -121154 -4.44886e-05
           0 -4.00051e-05  1.41699e+06
Von Mises = 1.53815
      Internal variable update took 0.00153985s
      Incremental displacement norm 2.65166e-08
      Residual force norm 2677.16
      Equilibrium iteration required 0.00423163s
    Newton-Raphson iteration 2
      External forces assembly took 8.2e-08s
      Tangent stiffness assembly took 3.7788e-05s
      PaStiX LLT direct solver took 0.00265638s
Elastic left Cauchy-Green
    0.999995 -4.34588e-16  2.71202e-16
           0     0.999995 -5.50814e-16
           0 -4.95303e-16      1.00001
Logarithmic trial strain
-2.44687e-06 -3.55015e-16  1.20665e-16
           0 -2.44687e-06 -5.21852e-16
           0 -4.80219e-16    7.125e-06
Trial stress
     -124940 -5.73486e-05   1.9492e-05
           0      -124940 -8.42992e-05
           0 -7.75739e-05  1.42129e+06
Von Mises = 1.54623
      Internal variable update took 0.00110555s
      Incremental displacement norm 8.48528e-07
      Residual force norm 85668.7
      Equilibrium iteration required 0.00384956s
    Newton-Raphson iteration 3
      External forces assembly took 8e-08s
      Tangent stiffness assembly took 3.7421e-05s
      PaStiX LLT direct solver took 0.00247207s
Elastic left Cauchy-Green
    0.999995 -7.10027e-16   2.4133e-16
           0     0.999995 -1.04371e-15
           0 -9.60443e-16      1.00001
Logarithmic trial strain
-2.15625e-06  -6.4066e-16    8.256e-17
-3.07592e-16 -2.15625e-06 -7.53265e-16
-3.81046e-17 -6.97754e-16  7.15625e-06
Trial stress
    -3786.04 -0.000103491  1.33366e-05
-4.96879e-05     -3786.04 -0.000121681
-6.15536e-06 -0.000112714  1.50054e+06
Von Mises = 1.50433
      Internal variable update took 0.00110189s
      Incremental displacement norm 8.75044e-07
      Residual force norm 88345.9
      Equilibrium iteration required 0.00366117s
    Newton-Raphson iteration 4
      External forces assembly took 8.2e-08s
      Tangent stiffness assembly took 3.6932e-05s
      PaStiX LLT direct solver took 0.00333839s
Elastic left Cauchy-Green
    0.999996 -1.28131e-15  1.65121e-16
 -6.1518e-16     0.999996 -1.50654e-15
-7.62096e-17 -1.39551e-15      1.00001
Logarithmic trial strain
-1.85625e-06 -9.67777e-16   1.0659e-16
-6.06953e-16 -1.85625e-06 -8.15916e-16
-1.40746e-17  -7.5867e-16   7.1875e-06
Trial stress
      121154 -0.000156333  1.72184e-05
-9.80463e-05       121154 -0.000131802
-2.27359e-06 -0.000122554  1.58207e+06
Von Mises = 1.46091
      Internal variable update took 0.0010961s
      Incremental displacement norm 2.65164e-08
      Residual force norm 2677.14
      Equilibrium iteration required 0.00452183s
    Newton-Raphson iteration 5
      External forces assembly took 8.4e-08s
      Tangent stiffness assembly took 4.8763e-05s
      PaStiX LLT direct solver took 0.00249295s
Elastic left Cauchy-Green
    0.999996 -1.93555e-15  2.13181e-16
 -1.2139e-15     0.999996 -1.63184e-15
-2.81494e-17 -1.51735e-15      1.00001
Logarithmic trial strain
-1.85625e-06 -9.46756e-16   1.3377e-16
-5.58176e-16 -1.85625e-06  -7.7026e-16
 1.31054e-17 -7.13014e-16  7.21875e-06
Trial stress
      124940 -0.000152937   2.1609e-05
-9.01669e-05       124940 -0.000124427
 2.11703e-06 -0.000115179   1.5909e+06
Von Mises = 1.46596
      Internal variable update took 0.00105931s
      Incremental displacement norm 8.48528e-07
      Residual force norm 85668.8
      Equilibrium iteration required 0.00365256s
    Newton-Raphson iteration 6
      External forces assembly took 9.2e-08s
      Tangent stiffness assembly took 3.6047e-05s
      PaStiX LLT direct solver took 0.00392308s
Elastic left Cauchy-Green
    0.999996  -1.8935e-15  2.67542e-16
-1.11635e-15     0.999996 -1.54053e-15
  2.6211e-17 -1.42604e-15      1.00001
Logarithmic trial strain
-2.16562e-06 -7.35327e-16  1.29634e-16
-3.74503e-16 -2.16562e-06 -7.80742e-16
 8.96924e-18 -7.25231e-16     7.25e-06
Trial stress
     3786.07 -0.000118784  2.09409e-05
-6.04967e-05      3786.07  -0.00012612
 1.44888e-06 -0.000117153  1.52477e+06
Von Mises = 1.52098
      Internal variable update took 0.000534564s
      Incremental displacement norm 8.75044e-07
      Residual force norm 88345.9
      Equilibrium iteration required 0.00462324s
    Newton-Raphson iteration 7
      External forces assembly took 7.6e-08s
      Tangent stiffness assembly took 0.000132918s
      PaStiX LLT direct solver took 0.00236338s
Elastic left Cauchy-Green
    0.999996 -1.47065e-15  2.59269e-16
-7.49003e-16     0.999996 -1.56149e-15
 1.79386e-17 -1.45047e-15      1.00001
Logarithmic trial strain
-2.48437e-06 -6.90971e-16   9.7249e-17
-3.30147e-16 -2.48437e-06 -1.03314e-15
-2.34157e-17 -9.84566e-16  7.28125e-06
Trial stress
     -121154 -0.000111618  1.57095e-05
-5.33314e-05      -121154 -0.000166891
-3.78253e-06 -0.000159045  1.45637e+06
Von Mises = 1.57752
      Internal variable update took 0.00154378s
      Incremental displacement norm 2.65166e-08
      Residual force norm 2677.16
      Equilibrium iteration required 0.00409771s
    Newton-Raphson iteration 8
      External forces assembly took 8.6e-08s
      Tangent stiffness assembly took 3.71e-05s
      PaStiX LLT direct solver took 0.00248846s
Elastic left Cauchy-Green
    0.999995 -1.38194e-15  1.94499e-16
 -6.6029e-16     0.999995 -2.06629e-15
-4.68315e-17 -1.96914e-15      1.00001
Logarithmic trial strain
-2.50312e-06 -9.22998e-16  4.55466e-17
 -5.8993e-16 -2.50312e-06 -1.31983e-15
 -7.5118e-17 -1.26432e-15   7.3125e-06
Trial stress
     -124940   -0.0001491  7.35753e-06
-9.52963e-05      -124940 -0.000213203
-1.21345e-05 -0.000204236  1.46066e+06
Von Mises = 1.5856
      Internal variable update took 0.00115169s
      Incremental displacement norm 8.48528e-07
      Residual force norm 85668.7
      Equilibrium iteration required 0.00372807s
    Newton-Raphson iteration 9
      External forces assembly took 8.6e-08s
      Tangent stiffness assembly took 3.7082e-05s
      PaStiX LLT direct solver took 0.00330983s
Elastic left Cauchy-Green
    0.999995 -1.84599e-15  9.10937e-17
-1.17985e-15     0.999995 -2.63967e-15
-1.50237e-16 -2.52865e-15      1.00001
Logarithmic trial strain
 -2.2125e-06 -1.38364e-15    2.427e-17
-1.02281e-15  -2.2125e-06 -1.46665e-15
-9.63947e-17 -1.42502e-15  7.34375e-06
Trial stress
    -3786.04  -0.00022351  3.92054e-06
-0.000165223     -3786.04  -0.00023692
-1.55714e-05 -0.000230195  1.53992e+06
Von Mises = 1.5437
      Internal variable update took 0.000949983s
      Incremental displacement norm 8.75044e-07
      Residual force norm 88345.9
      Equilibrium iteration required 0.00434822s

    Non-convergence detected - step time set to 0.101562

    Performing equilibrium iterations for time 0.101562
Elastic left Cauchy-Green
    0.999996 -1.12876e-15  2.91475e-16
-9.62226e-16     0.999996 -3.45806e-16
-2.96493e-17 -2.00089e-16      1.00001
Logarithmic trial strain
    -1.8e-06 -5.26983e-16  1.45737e-16
-5.26983e-16     -1.8e-06 -1.76567e-16
-1.48246e-17 -1.01974e-16  7.01562e-06
Trial stress
      123047 -8.51281e-05  2.35421e-05
 -8.5128e-05       123047 -2.85223e-05
-2.39474e-06 -1.64727e-05  1.54711e+06
Von Mises = 1.42406
      Internal variable update took 0.000293363s
    Newton-Raphson iteration 0
      External forces assembly took 9.5e-08s
      Tangent stiffness assembly took 3.761e-05s
      PaStiX LLT direct solver took 0.00339823s
Elastic left Cauchy-Green
    0.999996 -1.05396e-15  2.91475e-16
-1.05396e-15     0.999996 -3.53135e-16
-2.96493e-17 -2.03949e-16      1.00001
Logarithmic trial strain
-2.10469e-06 -3.12748e-16  1.57933e-16
-3.40504e-16 -2.10469e-06 -1.74062e-16
-2.62845e-18 -1.01204e-16  7.03125e-06
Trial stress
     1893.05 -5.05209e-05  2.55122e-05
-5.50045e-05      1893.05 -2.81177e-05
-4.24595e-07 -1.63484e-05   1.4777e+06
Von Mises = 1.4758
      Internal variable update took 0.000133822s
      Incremental displacement norm 8.61786e-07
      Residual force norm 87007.3
      Equilibrium iteration required 0.00361903s
    Newton-Raphson iteration 1
      External forces assembly took 8.4e-08s
      Tangent stiffness assembly took 3.7083e-05s
      PaStiX LLT direct solver took 0.00292491s
Elastic left Cauchy-Green
    0.999996 -6.25494e-16  3.15867e-16
-6.81005e-16     0.999996 -3.48126e-16
-5.25692e-18 -2.02409e-16      1.00001
Logarithmic trial strain
-2.41406e-06 -1.87909e-16  1.71871e-16
           0 -2.41406e-06  -2.8773e-16
           0 -2.07933e-16  7.04687e-06
Trial stress
     -121154 -3.03546e-05  2.77638e-05
           0      -121154 -4.64795e-05
           0 -3.35892e-05  1.40715e+06
Von Mises = 1.5283
      Internal variable update took 0.00108156s
      Incremental displacement norm 1.32584e-08
      Residual force norm 1338.59
      Equilibrium iteration required 0.00409233s
    Newton-Raphson iteration 2
      External forces assembly took 8.2e-08s
      Tangent stiffness assembly took 3.7251e-05s
      PaStiX LLT direct solver took 0.00258019s
Elastic left Cauchy-Green
    0.999995 -3.75817e-16  3.43744e-16
           0     0.999995 -5.75463e-16
           0 -4.15869e-16      1.00001
Logarithmic trial strain
-2.42344e-06 -2.10894e-16  1.53223e-16
           0 -2.42344e-06 -3.45979e-16
           0 -1.79446e-16   7.0625e-06
Trial stress
     -123047 -3.40675e-05  2.47514e-05
           0      -123047 -5.58888e-05
           0 -2.89874e-05   1.4093e+06
Von Mises = 1.53234
      Internal variable update took 0.00103874s
      Incremental displacement norm 8.48528e-07
      Residual force norm 85668.7
      Equilibrium iteration required 0.00370602s
    Newton-Raphson iteration 3
      External forces assembly took 8.1e-08s
      Tangent stiffness assembly took 3.7326e-05s
      PaStiX LLT direct solver took 0.00205872s
Elastic left Cauchy-Green
    0.999995 -4.21786e-16  3.06447e-16
           0     0.999995  -6.9196e-16
           0 -3.58893e-16      1.00001
Logarithmic trial strain
-2.12812e-06 -4.19958e-16  1.60685e-16
-2.25668e-16 -2.12812e-06 -4.70041e-16
   7.462e-18 -3.03508e-16  7.07812e-06
Trial stress
    -1893.01 -6.78394e-05  2.59568e-05
-3.64541e-05     -1893.01 -7.59297e-05
  1.2054e-06 -4.90282e-05  1.48527e+06
Von Mises = 1.48716
      Internal variable update took 0.00143058s
      Incremental displacement norm 8.61786e-07
      Residual force norm 87007.3
      Equilibrium iteration required 0.0035763s
    Newton-Raphson iteration 4
      External forces assembly took 1.18e-07s
      Tangent stiffness assembly took 3.6857e-05s
      PaStiX LLT direct solver took 0.00311461s
Elastic left Cauchy-Green
    0.999996 -8.39913e-16  3.21371e-16
-4.51335e-16     0.999996 -9.40086e-16
 1.49241e-17 -6.07019e-16      1.00001
Logarithmic trial strain
-1.82812e-06 -5.63994e-16  1.72591e-16
 -3.9746e-16 -1.82812e-06 -4.76373e-16
 1.93678e-17 -2.99432e-16  7.09375e-06
Trial stress
      121154 -9.11067e-05    2.788e-05
 -6.4205e-05       121154 -7.69526e-05
 3.12864e-06 -4.83698e-05  1.56238e+06
Von Mises = 1.44123
      Internal variable update took 0.00155808s
      Incremental displacement norm 1.32581e-08
      Residual force norm 1338.56
      Equilibrium iteration required 0.00477033s
    Newton-Raphson iteration 5
      External forces assembly took 8.2e-08s
      Tangent stiffness assembly took 3.8027e-05s
      PaStiX LLT direct solver took 0.00248523s
Elastic left Cauchy-Green
    0.999996 -1.12798e-15  3.45183e-16
-7.94917e-16     0.999996 -9.52751e-16
 3.87357e-17 -5.98867e-16      1.00001
Logarithmic trial strain
-1.82812e-06 -5.93542e-16  1.57672e-16
-3.99252e-16 -1.82812e-06 -3.94421e-16
 4.44895e-18  -2.1748e-16  7.10937e-06
Trial stress
      123047 -9.58798e-05    2.547e-05
-6.44945e-05       123047 -6.37142e-05
 7.18676e-07 -3.51314e-05   1.5668e+06
Von Mises = 1.44375
      Internal variable update took 0.00105936s
      Incremental displacement norm 8.48528e-07
      Residual force norm 85668.8
      Equilibrium iteration required 0.00363702s
    Newton-Raphson iteration 6
      External forces assembly took 8e-08s
      Tangent stiffness assembly took 3.6523e-05s
      PaStiX LLT direct solver took 0.00294342s
Elastic left Cauchy-Green
    0.999996 -1.18708e-15  3.15345e-16
-7.98501e-16     0.999996 -7.88847e-16
 8.89794e-18 -4.34963e-16      1.00001
Logarithmic trial strain
-2.13281e-06 -4.75992e-16  1.67855e-16
-2.81702e-16 -2.13281e-06 -3.74126e-16
 1.46323e-17 -1.97185e-16    7.125e-06
Trial stress
     1893.05 -7.68911e-05  2.71151e-05
-4.55058e-05      1893.05 -6.04357e-05
 2.36369e-06 -3.18529e-05  1.49739e+06
Von Mises = 1.49549
      Internal variable update took 0.00149242s
      Incremental displacement norm 8.61786e-07
      Residual force norm 87007.3
      Equilibrium iteration required 0.00452231s
    Newton-Raphson iteration 7
      External forces assembly took 8e-08s
      Tangent stiffness assembly took 3.8524e-05s
      PaStiX LLT direct solver took 0.00247396s
Elastic left Cauchy-Green
    0.999996 -9.51981e-16  3.35712e-16
-5.63402e-16     0.999996 -7.48255e-16
 2.92648e-17 -3.94371e-16      1.00001
Logarithmic trial strain
-2.44219e-06 -4.13004e-16  1.38333e-16
-1.90958e-16 -2.44219e-06 -6.11705e-16
-1.48898e-17 -4.38234e-16  7.14062e-06
Trial stress
     -121154  -6.6716e-05  2.23461e-05
-3.08471e-05      -121154 -9.88139e-05
-2.40527e-06 -7.07916e-05  1.42684e+06
Von Mises = 1.54799
      Internal variable update took 0.000588136s
      Incremental displacement norm 1.32584e-08
      Residual force norm 1338.59
      Equilibrium iteration required 0.00315006s
    Newton-Raphson iteration 8
      External forces assembly took 8.3e-08s
      Tangent stiffness assembly took 3.6593e-05s
      PaStiX LLT direct solver took 0.00251697s
Elastic left Cauchy-Green
    0.999995 -8.26004e-16  2.76667e-16
-3.81915e-16     0.999995 -1.22342e-15
-2.97797e-17 -8.76472e-16      1.00001
Logarithmic trial strain
-2.45156e-06 -5.13649e-16   1.2833e-16
-2.91603e-16 -2.45156e-06  -9.1176e-16
-2.48928e-17 -7.45228e-16  7.15625e-06
Trial stress
     -123047 -8.29741e-05  2.07302e-05
-4.71052e-05      -123047 -0.000147284
-4.02115e-06 -0.000120383  1.42898e+06
Von Mises = 1.55203
      Internal variable update took 0.000878221s
      Incremental displacement norm 8.48528e-07
      Residual force norm 85668.7
      Equilibrium iteration required 0.00348024s
    Newton-Raphson iteration 9
      External forces assembly took 1.02e-07s
      Tangent stiffness assembly took 3.6353e-05s
      PaStiX LLT direct solver took 0.00318649s
Elastic left Cauchy-Green
    0.999995 -1.02729e-15  2.56661e-16
-5.83204e-16     0.999995 -1.82353e-15
-4.97859e-17 -1.49046e-15      1.00001
Logarithmic trial strain
-2.15625e-06 -8.07238e-16  1.44236e-16
-5.57437e-16 -2.15625e-06 -1.14525e-15
-8.98662e-18 -9.82186e-16  7.17187e-06
Trial stress
    -1893.01   -0.0001304  2.32997e-05
-9.00475e-05     -1893.01 -0.000185002
-1.45169e-06 -0.000158661  1.50496e+06
Von Mises = 1.50685
      Internal variable update took 0.00156042s
      Incremental displacement norm 8.61786e-07
      Residual force norm 87007.3
      Equilibrium iteration required 0.00483324s

    Non-convergence detected - step time set to 0.100781

    Performing equilibrium iterations for time 0.100781
Elastic left Cauchy-Green
    0.999996 -1.12876e-15  2.91475e-16
-9.62226e-16     0.999996 -3.45806e-16
-2.96493e-17 -2.00089e-16      1.00001
Logarithmic trial strain
    -1.8e-06  -5.4521e-16  1.45737e-16
-5.17454e-16     -1.8e-06 -1.71377e-16
-1.48246e-17 -9.85185e-17  7.00781e-06
Trial stress
      122100 -8.80724e-05  2.35421e-05
-8.35888e-05       122100 -2.76839e-05
-2.39474e-06 -1.59145e-05   1.5449e+06
Von Mises = 1.4228
      Internal variable update took 8.6451e-05s
    Newton-Raphson iteration 0
      External forces assembly took 7.8e-08s
      Tangent stiffness assembly took 3.6675e-05s
      PaStiX LLT direct solver took 0.00297394s
Elastic left Cauchy-Green
    0.999996 -1.09042e-15  2.91475e-16
-1.03491e-15     0.999996 -3.42755e-16
-2.96493e-17 -1.97038e-16      1.00001
Logarithmic trial strain
-2.10234e-06 -3.19357e-16  1.23955e-16
-2.91602e-16 -2.10234e-06 -1.61219e-16
-3.66058e-17 -7.79522e-17  7.01562e-06
Trial stress
     946.532 -5.15884e-05  2.00236e-05
-4.71049e-05      946.532  -2.6043e-05
-5.91324e-06 -1.25923e-05  1.47385e+06
Von Mises = 1.4729
      Internal variable update took 0.000607098s
      Incremental displacement norm 8.55157e-07
      Residual force norm 86338
      Equilibrium iteration required 0.00367461s
    Newton-Raphson iteration 1
      External forces assembly took 8.6e-08s
      Tangent stiffness assembly took 3.7379e-05s
      PaStiX LLT direct solver took 0.00248868s
Elastic left Cauchy-Green
    0.999996 -6.38711e-16  2.47912e-16
-5.83201e-16     0.999996 -3.22439e-16
-7.32119e-17 -1.55905e-16      1.00001
Logarithmic trial strain
-2.40703e-06 -4.24779e-18  1.00279e-16
           0 -2.40703e-06 -4.13646e-17
           0 -4.13646e-17  7.02343e-06
Trial stress
     -121154 -6.86182e-07   1.6199e-05
           0      -121154 -6.68197e-06
           0 -6.68197e-06  1.40223e+06
Von Mises = 1.52338
      Internal variable update took 0.00141217s
      Incremental displacement norm 6.62925e-09
      Residual force norm 669.3
      Equilibrium iteration required 0.0039986s
    Newton-Raphson iteration 2
      External forces assembly took 7.9e-08s
      Tangent stiffness assembly took 3.6935e-05s
      PaStiX LLT direct solver took 0.0024326s
Elastic left Cauchy-Green
    0.999995 -8.49554e-18   2.0056e-16
           0     0.999995 -8.27295e-17
           0 -8.27295e-17      1.00001
Logarithmic trial strain
-2.41172e-06 -1.17031e-16  6.04068e-17
           0 -2.41172e-06  -2.5718e-16
           0  -2.5718e-16  7.03125e-06
Trial stress
     -122100  -1.8905e-05  9.75803e-06
           0      -122100 -4.15445e-05
           0 -4.15445e-05   1.4033e+06
Von Mises = 1.5254
      Internal variable update took 0.00106241s
      Incremental displacement norm 8.48528e-07
      Residual force norm 85668.7
      Equilibrium iteration required 0.00358227s
    Newton-Raphson iteration 3
      External forces assembly took 6.2e-08s
      Tangent stiffness assembly took 4.8479e-05s
      PaStiX LLT direct solver took 0.00252639s
Elastic left Cauchy-Green
    0.999995 -2.34061e-16  1.20814e-16
           0     0.999995 -5.14362e-16
           0 -5.14362e-16      1.00001
Logarithmic trial strain
-2.11406e-06 -5.85582e-16  1.91316e-17
-4.74559e-16 -2.11406e-06 -4.98807e-16
-4.12753e-17 -4.84929e-16  7.03906e-06
Trial stress
    -946.495  -9.4594e-05  3.09048e-06
-7.66596e-05     -946.495 -8.05765e-05
-6.66754e-06 -7.83347e-05  1.47763e+06
Von Mises = 1.47858
      Internal variable update took 0.000836657s
      Incremental displacement norm 8.55157e-07
      Residual force norm 86338
      Equilibrium iteration required 0.00346122s
    Newton-Raphson iteration 4
      External forces assembly took 9.1e-08s
      Tangent stiffness assembly took 3.6756e-05s
      PaStiX LLT direct solver took 0.00326841s
Elastic left Cauchy-Green
    0.999996 -1.17116e-15  3.82633e-17
-9.49115e-16     0.999996 -9.97618e-16
-8.25509e-17 -9.69863e-16      1.00001
Logarithmic trial strain
-1.81406e-06 -1.08185e-15 -1.81238e-17
-9.70831e-16 -1.81406e-06   -5.953e-16
-7.85307e-17 -5.88362e-16  7.04687e-06
Trial stress
      121154 -0.000174761  -2.9277e-06
-0.000156827       121154 -9.61639e-05
-1.26857e-05  -9.5043e-05  1.55254e+06
Von Mises = 1.43138
      Internal variable update took 0.00159276s
      Incremental displacement norm 6.62899e-09
      Residual force norm 669.274
      Equilibrium iteration required 0.0049501s
    Newton-Raphson iteration 5
      External forces assembly took 8.5e-08s
      Tangent stiffness assembly took 3.78e-05s
      PaStiX LLT direct solver took 0.00248045s
Elastic left Cauchy-Green
    0.999996  -2.1637e-15 -3.62479e-17
-1.94166e-15     0.999996 -1.19061e-15
-1.57062e-16 -1.17673e-15      1.00001
Logarithmic trial strain
-1.81406e-06 -1.16152e-15  1.95096e-17
 -1.0505e-15 -1.81406e-06 -5.44563e-16
-4.08972e-17 -5.44563e-16  7.05468e-06
Trial stress
      122100  -0.00018763  3.15155e-06
-0.000169696       122100 -8.79678e-05
-6.60647e-06 -8.79678e-05  1.55474e+06
Von Mises = 1.43264
      Internal variable update took 0.00107357s
      Incremental displacement norm 8.48528e-07
      Residual force norm 85668.8
      Equilibrium iteration required 0.00364303s
    Newton-Raphson iteration 6
      External forces assembly took 7.7e-08s
      Tangent stiffness assembly took 3.6595e-05s
      PaStiX LLT direct solver took 0.00255195s
Elastic left Cauchy-Green
    0.999996 -2.32303e-15  3.90194e-17
-2.10099e-15     0.999996 -1.08913e-15
-8.17949e-17 -1.08913e-15      1.00001
Logarithmic trial strain
-2.11641e-06 -8.18572e-16  7.40246e-17
-7.35305e-16 -2.11641e-06 -4.47751e-16
 1.36178e-17 -4.49486e-16   7.0625e-06
Trial stress
     946.532 -0.000132231  1.19578e-05
 -0.00011878      946.532 -7.23291e-05
 2.19979e-06 -7.26093e-05  1.48369e+06
Von Mises = 1.48275
      Internal variable update took 0.00134994s
      Incremental displacement norm 8.55157e-07
      Residual force norm 86338
      Equilibrium iteration required 0.00398769s
    Newton-Raphson iteration 7
      External forces assembly took 7.9e-08s
      Tangent stiffness assembly took 3.8168e-05s
      PaStiX LLT direct solver took 0.002659s
Elastic left Cauchy-Green
    0.999996 -1.63714e-15   1.4805e-16
 -1.4706e-15     0.999996 -8.95507e-16
 2.72357e-17 -8.98977e-16      1.00001
Logarithmic trial strain
-2.42109e-06  -4.4033e-16  7.72653e-17
-3.57062e-16 -2.42109e-06 -5.37712e-16
 1.68585e-17 -5.34243e-16  7.07031e-06
Trial stress
     -121154 -7.11302e-05  1.24813e-05
-5.76793e-05      -121154 -8.68612e-05
  2.7233e-06 -8.63007e-05  1.41207e+06
Von Mises = 1.53323
      Internal variable update took 0.000617582s
      Incremental displacement norm 6.62925e-09
      Residual force norm 669.3
      Equilibrium iteration required 0.00336443s
    Newton-Raphson iteration 8
      External forces assembly took 8.4e-08s
      Tangent stiffness assembly took 3.6282e-05s
      PaStiX LLT direct solver took 0.00258027s
Elastic left Cauchy-Green
    0.999995 -8.80655e-16  1.54531e-16
-7.14121e-16     0.999995 -1.07543e-15
 3.37172e-17 -1.06849e-15      1.00001
Logarithmic trial strain
-2.42578e-06 -5.49523e-16  4.46357e-17
-4.66256e-16 -2.42578e-06 -9.75725e-16
-1.57711e-17 -9.75725e-16  7.07812e-06
Trial stress
     -122100 -8.87691e-05  7.21038e-06
-7.53183e-05      -122100 -0.000157617
-2.54764e-06 -0.000157617  1.41315e+06
Von Mises = 1.53525
      Internal variable update took 0.00111445s
      Incremental displacement norm 8.48528e-07
      Residual force norm 85668.7
      Equilibrium iteration required 0.00377922s
    Newton-Raphson iteration 9
      External forces assembly took 8.7e-08s
      Tangent stiffness assembly took 3.6843e-05s
      PaStiX LLT direct solver took 0.00343188s
Elastic left Cauchy-Green
    0.999995 -1.09904e-15  8.92718e-17
-9.32507e-16     0.999995 -1.95146e-15
-3.15424e-17 -1.95146e-15      1.00001
Logarithmic trial strain
-2.12812e-06 -1.22461e-15  -1.5519e-17
-1.08583e-15 -2.12812e-06 -1.50709e-15
-7.59258e-17 -1.50709e-15  7.08593e-06
Trial stress
    -946.495 -0.000197821 -2.50691e-06
-0.000175403     -946.495 -0.000243452
-1.22649e-05 -0.000243452  1.48748e+06
Von Mises = 1.48842
      Internal variable update took 0.0011188s
      Incremental displacement norm 8.55157e-07
      Residual force norm 86338
      Equilibrium iteration required 0.00463767s

    Non-convergence detected - step time set to 0.100391

    Performing equilibrium iterations for time 0.100391
Elastic left Cauchy-Green
    0.999996 -1.12876e-15  2.91475e-16
-9.62226e-16     0.999996 -3.45806e-16
-2.96493e-17 -2.00089e-16      1.00001
Logarithmic trial strain
    -1.8e-06 -6.24504e-16  1.45737e-16
-5.41237e-16     -1.8e-06 -1.72326e-16
-1.48246e-17 -1.06407e-16   7.0039e-06
Trial stress
      121627 -0.000100881  2.35421e-05
-8.74306e-05       121627 -2.78373e-05
-2.39474e-06 -1.71888e-05   1.5438e+06
Von Mises = 1.42217
      Internal variable update took 9.5237e-05s
    Newton-Raphson iteration 0
      External forces assembly took 8.3e-08s
      Tangent stiffness assembly took 3.7348e-05s
      PaStiX LLT direct solver took 0.00319576s
Elastic left Cauchy-Green
    0.999996   -1.249e-15  2.91475e-16
-1.08247e-15     0.999996 -3.44653e-16
-2.96493e-17 -2.12815e-16      1.00001
Logarithmic trial strain
-2.10117e-06 -4.10116e-16  1.91013e-16
-3.82361e-16 -2.10117e-06   -1.688e-16
 3.04516e-17 -7.85947e-17  7.00781e-06
Trial stress
     473.275 -6.62496e-05  3.08559e-05
 -6.1766e-05      473.275 -2.72677e-05
  4.9191e-06 -1.26961e-05  1.47192e+06
Von Mises = 1.47145
      Internal variable update took 0.000882942s
      Incremental displacement norm 8.51842e-07
      Residual force norm 86003.4
      Equilibrium iteration required 0.00416489s
    Newton-Raphson iteration 1
      External forces assembly took 8.4e-08s
      Tangent stiffness assembly took 3.7307e-05s
      PaStiX LLT direct solver took 0.00267183s
Elastic left Cauchy-Green
    0.999996 -8.20229e-16  3.82027e-16
-7.64718e-16     0.999996 -3.37601e-16
 6.09034e-17  -1.5719e-16      1.00001
Logarithmic trial strain
-2.40351e-06 -4.43199e-16  2.20249e-16
-3.87687e-16 -2.40351e-06 -2.43922e-16
 5.96881e-17 -1.60656e-16  7.01172e-06
Trial stress
     -121154 -7.15936e-05  3.55787e-05
-6.26264e-05      -121154 -3.94029e-05
 9.64192e-06 -2.59521e-05  1.39977e+06
Von Mises = 1.52092
      Internal variable update took 0.00108268s
      Incremental displacement norm 3.31469e-09
      Residual force norm 334.656
      Equilibrium iteration required 0.00384079s
    Newton-Raphson iteration 2
      External forces assembly took 8.2e-08s
      Tangent stiffness assembly took 8.7812e-05s
      PaStiX LLT direct solver took 0.00250814s
Elastic left Cauchy-Green
    0.999995 -8.86393e-16    4.405e-16
-7.75371e-16     0.999995 -4.87847e-16
 1.19377e-16 -3.21314e-16      1.00001
Logarithmic trial strain
-2.40586e-06 -6.82838e-16  2.02226e-16
-6.27327e-16 -2.40586e-06 -4.20062e-16
 4.16647e-17 -3.43735e-16  7.01562e-06
Trial stress
     -121627 -0.000110305  3.26672e-05
-0.000101337      -121627 -6.78562e-05
 6.73044e-06 -5.55263e-05   1.4003e+06
Von Mises = 1.52193
      Internal variable update took 0.00106441s
      Incremental displacement norm 8.48528e-07
      Residual force norm 85668.7
      Equilibrium iteration required 0.00371524s
    Newton-Raphson iteration 3
      External forces assembly took 8.1e-08s
      Tangent stiffness assembly took 3.7285e-05s
      PaStiX LLT direct solver took 0.002538s
Elastic left Cauchy-Green
    0.999995 -1.36567e-15  4.04453e-16
-1.25465e-15     0.999995 -8.40128e-16
 8.33297e-17 -6.87472e-16      1.00001
Logarithmic trial strain
-2.10703e-06 -1.00355e-15  1.80295e-16
-9.75798e-16 -2.10703e-06  -5.6963e-16
 1.97341e-17 -4.95037e-16  7.01953e-06
Trial stress
    -473.239 -0.000162112  2.91246e-05
-0.000157629     -473.239 -9.20172e-05
 3.18781e-06 -7.99676e-05  1.47382e+06
Von Mises = 1.47429
      Internal variable update took 0.000977291s
      Incremental displacement norm 8.51842e-07
      Residual force norm 86003.4
      Equilibrium iteration required 0.00360279s
    Newton-Raphson iteration 4
      External forces assembly took 8.4e-08s
      Tangent stiffness assembly took 3.7742e-05s
      PaStiX LLT direct solver took 0.00323243s
Elastic left Cauchy-Green
    0.999996  -2.0071e-15  3.60592e-16
-1.95159e-15     0.999996 -1.13927e-15
 3.94683e-17  -9.9008e-16      1.00001
Logarithmic trial strain
-1.80703e-06 -1.17146e-15  1.34993e-16
 -1.1437e-15 -1.80703e-06 -6.55715e-16
-2.55682e-17 -5.77653e-16  7.02343e-06
Trial stress
      121154 -0.000189235  2.18065e-05
-0.000184752       121154 -0.000105923
-4.13025e-06 -9.33132e-05  1.54761e+06
Von Mises = 1.42646
      Internal variable update took 0.00159695s
      Incremental displacement norm 3.31443e-09
      Residual force norm 334.631
      Equilibrium iteration required 0.00501553s
    Newton-Raphson iteration 5
      External forces assembly took 9.1e-08s
      Tangent stiffness assembly took 3.8902e-05s
      PaStiX LLT direct solver took 0.00253647s
Elastic left Cauchy-Green
    0.999996  -2.3429e-15  2.69987e-16
-2.28739e-15     0.999996 -1.31144e-15
-5.11367e-17 -1.15531e-15      1.00001
Logarithmic trial strain
-1.80703e-06 -1.28076e-15   1.2061e-16
-1.28076e-15 -1.80703e-06  -6.5792e-16
-3.99509e-17 -5.78123e-16  7.02734e-06
Trial stress
      121627 -0.000206892  1.94832e-05
-0.000206892       121627 -0.000106279
-6.45361e-06 -9.33892e-05  1.54872e+06
Von Mises = 1.42709
      Internal variable update took 0.00107597s
      Incremental displacement norm 8.48528e-07
      Residual force norm 85668.8
      Equilibrium iteration required 0.00371304s
    Newton-Raphson iteration 6
      External forces assembly took 7.9e-08s
      Tangent stiffness assembly took 3.644e-05s
      PaStiX LLT direct solver took 0.00244522s
Elastic left Cauchy-Green
    0.999996 -2.56151e-15  2.41222e-16
-2.56151e-15     0.999996 -1.31585e-15
-7.99022e-17 -1.15625e-15      1.00001
Logarithmic trial strain
 -2.1082e-06 -1.42795e-15  1.52575e-16
-1.40019e-15  -2.1082e-06 -6.99281e-16
-7.98617e-18 -6.20351e-16  7.03125e-06
Trial stress
     473.275 -0.000230668  2.46467e-05
-0.000226185      473.275 -0.000112961
-1.29007e-06 -0.000100211  1.47685e+06
Von Mises = 1.47637
      Internal variable update took 0.00111299s
      Incremental displacement norm 8.51842e-07
      Residual force norm 86003.4
      Equilibrium iteration required 0.00364371s
    Newton-Raphson iteration 7
      External forces assembly took 8e-08s
      Tangent stiffness assembly took 3.7633e-05s
      PaStiX LLT direct solver took 0.00284014s
Elastic left Cauchy-Green
    0.999996 -2.85588e-15  3.05151e-16
-2.80037e-15     0.999996 -1.39857e-15
-1.59724e-17 -1.24071e-15      1.00001
Logarithmic trial strain
-2.41055e-06 -1.46621e-15  1.95506e-16
-1.46621e-15 -2.41055e-06 -8.25402e-16
 3.49454e-17  -7.4387e-16  7.03515e-06
Trial stress
     -121154  -0.00023685  3.15818e-05
 -0.00023685      -121154 -0.000133334
 5.64502e-06 -0.000120164  1.40469e+06
Von Mises = 1.52584
      Internal variable update took 0.00170084s
      Incremental displacement norm 3.31469e-09
      Residual force norm 334.656
      Equilibrium iteration required 0.00462932s
    Newton-Raphson iteration 8
      External forces assembly took 6.9e-08s
      Tangent stiffness assembly took 3.9664e-05s
      PaStiX LLT direct solver took 0.0027029s
Elastic left Cauchy-Green
    0.999995 -2.93241e-15  3.91015e-16
-2.93241e-15     0.999995 -1.65081e-15
 6.98911e-17 -1.48775e-15      1.00001
Logarithmic trial strain
-2.41289e-06 -1.45801e-15   2.2375e-16
-1.40249e-15 -2.41289e-06 -1.01616e-15
 6.31888e-17 -9.39836e-16  7.03906e-06
Trial stress
     -121627 -0.000235524  3.61442e-05
-0.000226557      -121627  -0.00016415
 1.02074e-05  -0.00015182  1.40523e+06
Von Mises = 1.52685
      Internal variable update took 0.00111745s
      Incremental displacement norm 8.48528e-07
      Residual force norm 85668.7
      Equilibrium iteration required 0.00391155s
    Newton-Raphson iteration 9
      External forces assembly took 9.1e-08s
      Tangent stiffness assembly took 3.7364e-05s
      PaStiX LLT direct solver took 0.00352797s
Elastic left Cauchy-Green
    0.999995   -2.916e-15  4.47502e-16
-2.80497e-15     0.999995 -2.03234e-15
 1.26378e-16 -1.87968e-15      1.00001
Logarithmic trial strain
-2.11406e-06 -1.67801e-15  2.30631e-16
 -1.6225e-15 -2.11406e-06 -1.18637e-15
 7.00704e-17  -1.1031e-15  7.04297e-06
Trial stress
    -473.239 -0.000271063  3.72559e-05
-0.000262096     -473.239 -0.000191644
 1.13191e-05 -0.000178193  1.47874e+06
Von Mises = 1.47921
      Internal variable update took 0.00111829s
      Incremental displacement norm 8.51842e-07
      Residual force norm 86003.4
      Equilibrium iteration required 0.00473398s

    Non-convergence detected - step time set to 0.100195

    Performing equilibrium iterations for time 0.100195
Elastic left Cauchy-Green
    0.999996 -1.12876e-15  2.91475e-16
-9.62226e-16     0.999996 -3.45806e-16
-2.96493e-17 -2.00089e-16      1.00001
Logarithmic trial strain
    -1.8e-06 -5.63451e-16  1.45737e-16
-5.07939e-16     -1.8e-06   -1.675e-16
-1.48246e-17 -9.63768e-17  7.00195e-06
Trial stress
      121390  -9.1019e-05  2.35421e-05
-8.20517e-05       121390 -2.70577e-05
-2.39474e-06 -1.55686e-05  1.54324e+06
Von Mises = 1.42185
      Internal variable update took 8.5218e-05s
    Newton-Raphson iteration 0
      External forces assembly took 6.6e-08s
      Tangent stiffness assembly took 3.7675e-05s
      PaStiX LLT direct solver took 0.00266085s
Elastic left Cauchy-Green
    0.999996  -1.1269e-15  2.91475e-16
-1.01587e-15     0.999996 -3.35002e-16
-2.96493e-17 -1.92755e-16      1.00001
Logarithmic trial strain
-2.10058e-06 -2.70793e-16  1.73231e-16
-2.43037e-16 -2.10058e-06 -1.38334e-16
 1.26696e-17 -6.89452e-17   7.0039e-06
Trial stress
     236.647 -4.37435e-05  2.79834e-05
-3.92599e-05      236.647 -2.23462e-05
 2.04664e-06 -1.11373e-05  1.47096e+06
Von Mises = 1.47072
      Internal variable update took 0.00140298s
      Incremental displacement norm 8.50185e-07
      Residual force norm 85836.1
      Equilibrium iteration required 0.00414945s
    Newton-Raphson iteration 1
      External forces assembly took 8.2e-08s
      Tangent stiffness assembly took 3.8173e-05s
      PaStiX LLT direct solver took 0.0031969s
Elastic left Cauchy-Green
    0.999996 -5.41583e-16  3.46463e-16
-4.86072e-16     0.999996 -2.76669e-16
 2.53394e-17 -1.37891e-16      1.00001
Logarithmic trial strain
-2.40176e-06  2.28884e-17  1.43227e-16
           0 -2.40176e-06 -1.39257e-16
           0 -5.59911e-17  7.00586e-06
Trial stress
     -121154  3.69736e-06  2.31367e-05
           0      -121154 -2.24954e-05
           0 -9.04472e-06  1.39854e+06
Von Mises = 1.51969
      Internal variable update took 0.000619485s
      Incremental displacement norm 1.65741e-09
      Residual force norm 167.335
      Equilibrium iteration required 0.00390481s
    Newton-Raphson iteration 2
      External forces assembly took 9.5e-08s
      Tangent stiffness assembly took 3.7274e-05s
      PaStiX LLT direct solver took 0.00252521s
Elastic left Cauchy-Green
    0.999995  4.57766e-17  2.86456e-16
           0     0.999995 -2.78516e-16
           0 -1.11983e-16      1.00001
Logarithmic trial strain
-2.40293e-06 -1.90517e-16   1.2071e-16
           0 -2.40293e-06 -2.54826e-16
           0 -1.78499e-16  7.00781e-06
Trial stress
     -121390 -3.07758e-05  1.94993e-05
           0      -121390 -4.11642e-05
           0 -2.88344e-05  1.39881e+06
Von Mises = 1.5202
      Internal variable update took 0.00105694s
      Incremental displacement norm 8.48528e-07
      Residual force norm 85668.7
      Equilibrium iteration required 0.00367807s
    Newton-Raphson iteration 3
      External forces assembly took 7.8e-08s
      Tangent stiffness assembly took 3.6891e-05s
      PaStiX LLT direct solver took 0.003307s
Elastic left Cauchy-Green
    0.999995 -3.81032e-16  2.41421e-16
           0     0.999995 -5.09654e-16
           0 -3.56999e-16      1.00001
Logarithmic trial strain
-2.10351e-06 -6.32571e-16  8.58687e-17
-4.38281e-16 -2.10351e-06 -4.62046e-16
-3.48412e-17  -3.7878e-16  7.00976e-06
Trial stress
     -236.61 -0.000102185  1.38711e-05
-7.07992e-05      -236.61 -7.46383e-05
-5.62819e-06 -6.11876e-05  1.47191e+06
Von Mises = 1.47214
      Internal variable update took 0.000694241s
      Incremental displacement norm 8.50185e-07
      Residual force norm 85836.1
      Equilibrium iteration required 0.00409089s
    Newton-Raphson iteration 4
      External forces assembly took 7.2e-08s
      Tangent stiffness assembly took 3.7422e-05s
      PaStiX LLT direct solver took 0.00408364s
Elastic left Cauchy-Green
    0.999996 -1.26514e-15  1.71738e-16
-8.76558e-16     0.999996 -9.24097e-16
-6.96827e-17 -7.57564e-16      1.00001
Logarithmic trial strain
-1.80351e-06 -9.26461e-16  1.27837e-16
-7.87683e-16 -1.80351e-06 -5.02564e-16
 7.12723e-18 -4.20165e-16  7.01172e-06
Trial stress
      121154 -0.000149659  2.06506e-05
-0.000127241       121154 -8.11835e-05
 1.15132e-06 -6.78729e-05  1.54515e+06
Von Mises = 1.424
      Internal variable update took 0.00111436s
      Incremental displacement norm 1.65715e-09
      Residual force norm 167.309
      Equilibrium iteration required 0.00529136s
    Newton-Raphson iteration 5
      External forces assembly took 8.3e-08s
      Tangent stiffness assembly took 3.8834e-05s
      PaStiX LLT direct solver took 0.00253255s
Elastic left Cauchy-Green
    0.999996 -1.85292e-15  2.55676e-16
-1.57536e-15     0.999996 -1.00513e-15
 1.42545e-17 -8.40335e-16      1.00001
Logarithmic trial strain
-1.80351e-06 -8.43986e-16  1.98121e-16
-7.05207e-16 -1.80351e-06 -3.60723e-16
 7.74111e-17 -2.84395e-16  7.01367e-06
Trial stress
      121390 -0.000136336  3.20042e-05
-0.000113918       121390 -5.82706e-05
 1.25049e-05 -4.59408e-05   1.5457e+06
Von Mises = 1.42431
      Internal variable update took 0.00107744s
      Incremental displacement norm 8.48528e-07
      Residual force norm 85668.8
      Equilibrium iteration required 0.00369962s
    Newton-Raphson iteration 6
      External forces assembly took 7.9e-08s
      Tangent stiffness assembly took 3.6605e-05s
      PaStiX LLT direct solver took 0.00287195s
Elastic left Cauchy-Green
    0.999996 -1.68797e-15  3.96244e-16
-1.41041e-15     0.999996  -7.2145e-16
 1.54823e-16 -5.68794e-16      1.00001
Logarithmic trial strain
 -2.1041e-06 -4.24667e-16  2.37653e-16
-2.85889e-16  -2.1041e-06 -2.83713e-16
 1.16943e-16 -1.72691e-16  7.01562e-06
Trial stress
     236.647 -6.86001e-05  3.83901e-05
 -4.6182e-05      236.647 -4.58305e-05
 1.88908e-05 -2.78962e-05  1.47342e+06
Von Mises = 1.47319
      Internal variable update took 0.00110746s
      Incremental displacement norm 8.50185e-07
      Residual force norm 85836.1
      Equilibrium iteration required 0.00406656s
    Newton-Raphson iteration 7
      External forces assembly took 7.9e-08s
      Tangent stiffness assembly took 3.803e-05s
      PaStiX LLT direct solver took 0.00253278s
Elastic left Cauchy-Green
    0.999996 -8.49331e-16  4.75308e-16
-5.71775e-16     0.999996 -5.67428e-16
 2.33887e-16 -3.45384e-16      1.00001
Logarithmic trial strain
-2.40527e-06 -7.51217e-17  1.93418e-16
           0 -2.40527e-06 -2.96332e-16
          -0 -1.57555e-16  7.01757e-06
Trial stress
     -121154  -1.2135e-05  3.12445e-05
           0      -121154 -4.78691e-05
           0 -2.54512e-05    1.401e+06
Von Mises = 1.52215
      Internal variable update took 0.00106043s
      Incremental displacement norm 1.65741e-09
      Residual force norm 167.335
      Equilibrium iteration required 0.00368176s
    Newton-Raphson iteration 8
      External forces assembly took 1.02e-07s
      Tangent stiffness assembly took 3.7022e-05s
      PaStiX LLT direct solver took 0.00258109s
Elastic left Cauchy-Green
    0.999995 -1.50243e-16  3.86839e-16
           0     0.999995 -5.92668e-16
           0 -3.15112e-16      1.00001
Logarithmic trial strain
-2.40644e-06 -2.76706e-16  1.03103e-16
-2.76706e-16 -2.40644e-06 -6.60285e-16
-9.03158e-17 -5.49263e-16  7.01953e-06
Trial stress
     -121390 -4.46987e-05   1.6655e-05
-4.46987e-05      -121390 -0.000106661
-1.45895e-05 -8.87271e-05  1.40127e+06
Von Mises = 1.52266
      Internal variable update took 0.0010828s
      Incremental displacement norm 8.48528e-07
      Residual force norm 85668.7
      Equilibrium iteration required 0.0045246s
    Newton-Raphson iteration 9
      External forces assembly took 9.6e-08s
      Tangent stiffness assembly took 3.745e-05s
      PaStiX LLT direct solver took 0.00439075s
Elastic left Cauchy-Green
    0.999995  -5.5341e-16  2.06206e-16
 -5.5341e-16     0.999995 -1.32058e-15
-1.80632e-16 -1.09853e-15      1.00001
Logarithmic trial strain
-2.10703e-06 -7.97017e-16  5.41209e-17
-8.52528e-16 -2.10703e-06  -9.6508e-16
-1.39298e-16 -8.95692e-16  7.02148e-06
Trial stress
     -236.61 -0.000128749   8.7426e-06
-0.000137716      -236.61 -0.000155898
-2.25019e-05 -0.000144689  1.47437e+06
Von Mises = 1.47461
      Internal variable update took 0.000134653s
      Incremental displacement norm 8.50185e-07
      Residual force norm 85836.1
      Equilibrium iteration required 0.00462412s

    Non-convergence detected - step time set to 0.100098
